LAMMPS data file via write_data, version 21 Nov 2023, timestep = 285012, units = real

601 atoms
3 atom types
400 bonds
1 bond types
200 angles
1 angle types

0 30 xlo xhi
0 25 ylo yhi
0 25 zlo zhi

Masses

1 39.96
2 1.008
3 15.9994

Pair Coeffs # lj/cut/coul/cut

1 0.9878 3.432
2 0.046 0.4
3 0.1521 3.1507

Bond Coeffs # harmonic

1 450 0.9572

Angle Coeffs # harmonic

1 55 104.52

Atoms # full

1 1 1 0 1 12.5 12.5 0 0 0
331 111 2 0.417 21.147231304392133 3.051686781557158 6.544971647123682 0 0 0
330 111 2 0.417 20.528383975709136 1.7424546288735128 6.98637403097457 0 0 0
329 111 3 -0.834 21.16166403702538 2.4085515074077053 7.25378069948158 0 0 0
185 63 3 -0.834 21.17436382084571 4.356999486318217 5.353727322410533 0 0 0
55 19 2 0.417 19.8120628973118 5.351634264672946 6.282277984414686 0 0 0
53 19 3 -0.834 19.48457056405601 5.95234798834216 6.951702643419537 0 0 0
332 112 3 -0.834 21.881053317162955 6.221624910943777 8.527800327387054 0 0 0
54 19 2 0.417 20.22101097965697 6.066881415872568 7.552348217975821 0 0 0
519 174 2 0.417 18.474335301544755 6.893969004048315 8.15187210800797 0 0 0
286 96 2 0.417 21.23469952202824 3.2713570949422706 8.938197694293006 0 0 0
285 96 2 0.417 21.558589367190486 4.678907003515777 9.391844768118474 0 0 0
284 96 3 -0.834 21.453618187194046 3.7844203036002733 9.716068102838708 0 0 0
148 50 2 0.417 18.305586532231413 5.174149848602258 11.285884495417756 0 0 0
460 154 2 0.417 21.31388274685222 7.338064398296181 3.8027908086163165 0 0 0
270 91 2 0.417 18.311549741582798 7.339328592283523 6.023555250572914 0 0 0
564 189 2 0.417 18.05458083030342 7.3551313798713975 10.486672060458824 0 0 0
563 189 3 -0.834 18.039860019420754 7.289783887821912 11.441536118175522 0 0 0
409 137 2 0.417 21.20199265700047 3.3916464000063717 11.509446699058905 0 0 0
298 100 2 0.417 21.972960417650047 7.098273382626703 11.893851626694023 0 0 0
146 50 3 -0.834 18.041707765440417 4.422242414240958 11.816206762823342 0 0 0
518 174 3 -0.834 18.30003927563288 7.563965649284378 8.812904128313154 0 0 0
40 14 2 0.417 19.924761244141298 7.751647258018073 11.37933954838362 0 0 0
458 154 3 -0.834 20.63163205108571 7.885869161787758 4.190969096604887 0 0 0
271 91 2 0.417 18.861071962831407 8.035649539221186 4.796747299206002 0 0 0
269 91 3 -0.834 18.186892972104026 8.11164458480625 5.471986609050532 0 0 0
186 63 2 0.417 21.53647544541211 4.033826446130606 4.5286963485823355 0 0 0
333 112 2 0.417 21.985795199848923 7.137747625279022 8.784679634404368 0 0 0
187 63 2 0.417 21.71341394427563 5.11762485430316 5.570795147404269 0 0 0
565 189 2 0.417 17.524350178710314 8.044562103690149 11.725800143494315 0 0 0
38 14 3 -0.834 20.700785700514015 8.30123279561919 11.26986329616159 0 0 0
334 112 2 0.417 22.376937295509347 6.142693813813426 7.712872182338221 0 0 0
291 98 2 0.417 22.191137067781828 2.4960924663246216 2.5106774739519646 0 0 0
396 133 2 0.417 22.431931655843343 5.135078801488401 3.018755044992028 0 0 0
395 133 3 -0.834 22.54608384479269 6.0736936503070424 3.1677954224090383 0 0 0
290 98 3 -0.834 22.45362612951885 3.2616967494280154 3.0217402664324426 0 0 0
343 115 2 0.417 22.983512397068708 2.5627419954066917 7.528563602057416 0 0 0
451 151 2 0.417 23.09636493607669 3.134053716507444 10.094942756637103 0 0 0
397 133 2 0.417 23.12061622030253 6.361218713332539 2.458228187691993 0 0 0
134 46 3 -0.834 22.97374520118922 6.337390215838625 5.9322809154750775 0 0 0
292 98 2 0.417 23.402456515258116 3.1750436126654593 3.1136929744224964 0 0 0
136 46 2 0.417 23.14417212305801 6.453827565168035 4.997596730375182 0 0 0
341 115 3 -0.834 23.92046272838809 2.7585886054158344 7.530469504289349 0 0 0
449 151 3 -0.834 24.01610482121342 2.979063724869623 10.310111796367542 0 0 0
342 115 2 0.417 24.164084957731628 2.7569866877006 8.456148080170864 0 0 0
135 46 2 0.417 23.786161294624055 6.608217265128687 6.359914583028982 0 0 0
496 166 2 0.417 25.386090523536385 5.107184703873948 6.534716868859001 0 0 0
119 41 3 -0.834 27.944121808174945 3.0143733534046566 3.250508398624106 0 0 0
120 41 2 0.417 28.00619053189952 2.7110770840638767 4.156268414177125 0 0 0
495 166 2 0.417 24.99822754049557 3.646400581017988 6.447718192913325 0 0 0
121 41 2 0.417 28.605289400559645 2.505586944080567 2.781222494503801 0 0 0
161 55 3 -0.834 28.296037479147543 2.3638713027907112 5.901533741124556 0 0 0
162 55 2 0.417 27.639262839769977 2.78229870619069 6.458128650903825 0 0 0
163 55 2 0.417 28.850782440339064 1.8759844116490016 6.510185146509848 0 0 0
207 70 2 0.417 26.947585140747012 4.962038874841383 5.2256599212237465 0 0 0
349 117 2 0.417 25.300138529707166 3.6812632795647375 4.155870421886591 0 0 0
348 117 2 0.417 26.116992725898477 3.0648620041640386 3.040211776224957 0 0 0
347 117 3 -0.834 25.215283038707383 3.2196599210349115 3.3216288049740457 0 0 0
208 70 2 0.417 27.969111056911863 4.764831296436086 4.125891771676504 0 0 0
494 166 3 -0.834 25.528858208117306 4.315719944103848 6.015630208683021 0 0 0
228 77 2 0.417 25.038850651463544 6.512572315507771 8.510750690943995 0 0 0
370 124 2 0.417 28.412418162654685 6.600613256724175 8.958536846164446 0 0 0
206 70 3 -0.834 27.630835483227667 5.420091676586594 4.736172087407353 0 0 0
319 107 2 0.417 28.086225890821765 6.6398343541685785 6.25877425984019 0 0 0
317 107 3 -0.834 27.97401753011274 7.0426630493127815 7.119805006304727 0 0 0
227 77 3 -0.834 25.25367295294908 6.61331213385973 7.58341941850265 0 0 0
229 77 2 0.417 26.173312027090557 6.878772276528894 7.5775886471129645 0 0 0
259 87 2 0.417 26.610740273993397 6.701440111044017 3.8763530489815587 0 0 0
36 13 2 0.417 25.021439621347497 6.612279470604213 0.6841730451501364 0 0 0
35 13 3 -0.834 24.44851667495351 6.929948452744759 1.382084944408976 0 0 0
37 13 2 0.417 25.03651626131803 7.0934786413412 2.119483904545698 0 0 0
368 124 3 -0.834 28.255681417596005 6.4330493748479105 9.88783762812587 0 0 0
369 124 2 0.417 27.65968660832516 5.684116476935439 9.899453691123643 0 0 0
80 28 3 -0.834 24.624631097624604 6.34658677922518 10.235111650841997 0 0 0
82 28 2 0.417 24.712966789654235 7.272460405375786 10.461384618165845 0 0 0
403 135 2 0.417 25.855561286646992 5.0022258016656655 10.046757227809506 0 0 0
401 135 3 -0.834 26.47929681504675 4.294489049477128 9.884573890582882 0 0 0
402 135 2 0.417 25.980491019064033 3.493489321542726 10.045295727172142 0 0 0
81 28 2 0.417 23.873931074100188 6.0450752995380626 10.746761835336018 0 0 0
257 87 3 -0.834 26.08011897908309 7.395177408887585 3.4846716441230097 0 0 0
450 151 2 0.417 24.076807192254773 3.1595186695405277 11.2481902808279 0 0 0
255 86 2 0.417 28.568706005678326 6.01168203867222 11.691061385181994 0 0 0
318 107 2 0.417 27.945662385303475 7.982964334417548 6.942982109839966 0 0 0
258 87 2 0.417 26.613023538895938 8.185130766833431 3.5754318635397073 0 0 0
345 116 2 0.417 28.207575508767412 8.324256105628876 10.488401427950985 0 0 0
296 100 3 -0.834 22.72673329583283 6.605936049447538 12.21892121494012 0 0 0
459 154 2 0.417 21.03810778150825 8.256259519753009 4.9744402516296 0 0 0
520 174 2 0.417 18.43495339894447 8.393658818014455 8.355034897714761 0 0 0
526 176 2 0.417 21.658853930089915 8.790142381730528 9.67740119227643 0 0 0
39 14 2 0.417 20.353780880943816 9.185127016439754 11.1491794200777 0 0 0
149 51 3 -0.834 21.794547090385098 9.341881145508554 6.164109979532674 0 0 0
375 126 2 0.417 20.109721547244842 9.498750241183293 3.3662675038085155 0 0 0
376 126 2 0.417 20.884152712173993 10.086819646963312 2.2059546056657324 0 0 0
217 73 2 0.417 17.333462267023716 9.725522305788633 5.507114052420233 0 0 0
374 126 3 -0.834 20.224429501695276 10.30554822390868 2.864108302953541 0 0 0
156 53 2 0.417 19.869276948583735 9.795022297669561 6.964839869732256 0 0 0
261 88 2 0.417 18.397605221858825 13.74348361270639 11.334596670856083 0 0 0
252 85 2 0.417 18.532953086411204 11.508129330673771 3.0571241950378956 0 0 0
251 85 3 -0.834 18.0107089841339 12.176709731019262 3.5004054634605746 0 0 0
379 127 2 0.417 20.49232640102118 12.031627874069999 3.6445723417465166 0 0 0
378 127 2 0.417 21.772701059685996 12.812785895970986 3.4388340894774836 0 0 0
216 73 2 0.417 17.331154593439436 11.125339681837277 4.930570357463814 0 0 0
215 73 3 -0.834 17.192858734539747 10.64194896284601 5.745092121011099 0 0 0
377 127 3 -0.834 20.96879803219631 12.800266495063285 3.9582872740956234 0 0 0
99 34 2 0.417 20.274109099691195 13.912560200585006 8.909509364528738 0 0 0
198 67 2 0.417 16.884011442595227 11.900346858670817 8.577937715546417 0 0 0
199 67 2 0.417 16.745989154831193 11.787117031563447 7.074599769120241 0 0 0
155 53 3 -0.834 19.164396088253756 9.950919120742464 7.593390838564335 0 0 0
157 53 2 0.417 18.428629325797292 10.25052663355305 7.059422487034181 0 0 0
512 172 3 -0.834 21.277713027797713 12.081474573068533 6.59193624984662 0 0 0
514 172 2 0.417 21.571448781931906 11.175859279700274 6.492829388009175 0 0 0
197 67 3 -0.834 16.893301911074296 12.42214603433399 7.77551467796677 0 0 0
100 34 2 0.417 20.71196177319438 12.68468251372047 8.139770083349052 0 0 0
513 172 2 0.417 21.111271545187932 12.379017135107565 5.697503093677085 0 0 0
98 34 3 -0.834 20.542116780347886 13.00118541163118 9.027028858354189 0 0 0
23 9 3 -0.834 17.0495847878463 11.308253905303612 10.327347359658807 0 0 0
579 194 2 0.417 18.030091515639782 13.482261478180538 6.635690504516972 0 0 0
192 65 2 0.417 16.644667834553392 14.221961592794688 8.185628161100867 0 0 0
444 149 2 0.417 19.921520036803933 11.542734385199019 9.931721698533062 0 0 0
445 149 2 0.417 19.488104771826364 10.217139130915944 9.342787134219135 0 0 0
443 149 3 -0.834 19.676767507365778 10.650009696229592 10.175422125173945 0 0 0
24 9 2 0.417 17.942374124281255 10.964623683295807 10.36039486955799 0 0 0
25 9 2 0.417 16.589345339922204 10.848489814022475 11.029514878672309 0 0 0
580 194 2 0.417 18.576726700332873 13.322538244499508 5.2329881338041915 0 0 0
253 85 2 0.417 17.95385303414595 12.894239514569996 2.8694077403629885 0 0 0
578 194 3 -0.834 18.4151421301517 13.977117739651984 5.912439183395304 0 0 0
381 128 2 0.417 21.132395079826647 14.709769905646686 4.185793522894782 0 0 0
193 65 2 0.417 16.805918800805934 14.834436345135774 9.560680292478308 0 0 0
262 88 2 0.417 17.12464758538772 13.112789379673016 10.81143429928998 0 0 0
260 88 3 -0.834 17.49565800783175 13.95016248679332 11.089628165248572 0 0 0
516 173 2 0.417 20.648511241193923 13.242380214718287 11.813470686944308 0 0 0
399 134 2 0.417 17.72359077638856 14.425266287608778 0.8236369297634728 0 0 0
398 134 3 -0.834 18.087788880768517 14.34231377884882 1.7049517655582276 0 0 0
191 65 3 -0.834 16.806132119146394 15.05469892062688 8.629161921947974 0 0 0
400 134 2 0.417 18.95002669100916 14.754086448557898 1.6480344632110775 0 0 0
382 128 2 0.417 21.853441180780347 15.176015391238293 5.432630988995129 0 0 0
4 2 2 0.417 19.52600956891547 15.229846022269523 7.247061640046421 0 0 0
2 2 3 -0.834 19.509329766322303 15.496854603551254 8.166119050055388 0 0 0
3 2 2 0.417 18.585707974354904 15.449737035136899 8.412984568620082 0 0 0
380 128 3 -0.834 21.426408160859737 15.499696316429256 4.6394615285951515 0 0 0
441 148 2 0.417 17.83196479329464 15.21994732492302 4.692299765131809 0 0 0
484 162 2 0.417 21.310402585369193 15.371886256685197 1.3043520873518915 0 0 0
387 130 2 0.417 22.038829071888824 12.191796027766213 9.660189530349543 0 0 0
442 148 2 0.417 17.685116750300608 15.26801284809058 3.1863045876972085 0 0 0
482 162 3 -0.834 20.428504502708588 15.70957941936627 1.4607511868827954 0 0 0
440 148 3 -0.834 17.559166268895265 15.793661702642956 3.9762863382935656 0 0 0
62 22 3 -0.834 22.10839512936924 14.461195277610669 11.769495009979856 0 0 0
106 36 2 0.417 17.932550373070246 15.914036392752003 11.215047320587503 0 0 0
524 176 3 -0.834 22.136307494754337 9.064601022496603 8.894489158929717 0 0 0
150 51 2 0.417 22.034476567413687 9.102742119266745 7.0593684486426 0 0 0
61 21 2 0.417 22.391462632980474 15.254256365234832 10.040255223215054 0 0 0
525 176 2 0.417 22.483978964929985 9.928496634714826 9.115962295017555 0 0 0
104 36 3 -0.834 18.520398335989025 16.621585558273523 11.479716054739184 0 0 0
483 162 2 0.417 20.525128549601764 16.661019774528985 1.420008181042757 0 0 0
421 141 2 0.417 22.470880817004918 13.572845368923943 6.914149366103922 0 0 0
515 173 3 -0.834 19.789743635189815 12.976269329741857 12.142011193049624 0 0 0
105 36 2 0.417 18.991414561093496 16.271958659127392 12.236122336023259 0 0 0
511 171 2 0.417 24.79543341274428 8.376792698068373 4.274310692144546 0 0 0
151 51 2 0.417 22.597759856137703 9.216484153304842 5.658771608013951 0 0 0
137 47 3 -0.834 22.909520809291564 9.292545793416203 2.008507917238624 0 0 0
388 130 2 0.417 22.70453156151134 11.452635412189368 10.801407491536848 0 0 0
386 130 3 -0.834 22.79475607574719 11.642420293396855 9.867554917489278 0 0 0
59 21 3 -0.834 22.75391472769601 15.593758451267488 9.221963776502191 0 0 0
139 47 2 0.417 23.31311199662094 8.6279648056458 1.4502228245544644 0 0 0
138 47 2 0.417 23.156089125728347 9.040394688462834 2.8983736738762356 0 0 0
383 129 3 -0.834 22.990841399467634 14.739316049810304 1.2649977069069986 0 0 0
419 141 3 -0.834 22.83335816110319 14.444095258279608 6.753611806959133 0 0 0
420 141 2 0.417 22.858077905728546 14.85655874158804 7.617040762871125 0 0 0
385 129 2 0.417 23.17021351202063 13.837116102750988 1.529762720772858 0 0 0
328 110 2 0.417 23.189419678814847 11.25928905550055 2.2229710022219082 0 0 0
326 110 3 -0.834 23.296946489606768 12.167518821817913 2.505451265183367 0 0 0
509 171 3 -0.834 24.020606973613173 8.87893980716489 4.526764109829072 0 0 0
344 116 3 -0.834 28.167283994517256 9.279834341347698 10.526987838514696 0 0 0
392 132 3 -0.834 24.424566087124035 9.047431108230311 11.243811477402522 0 0 0
346 116 2 0.417 28.30244440997923 9.488589196838474 11.451326884175563 0 0 0
26 10 3 -0.834 27.290363204677277 9.688610313208667 4.248173970463946 0 0 0
510 171 2 0.417 24.341240708263573 9.773540865766453 4.6413257444848535 0 0 0
28 10 2 0.417 27.36847767713681 9.801631101265636 5.195467743111569 0 0 0
27 10 2 0.417 27.33252197761969 10.577726471663953 3.896129912220831 0 0 0
85 29 2 0.417 24.89030550072818 10.80416951691228 7.930929786812229 0 0 0
327 110 2 0.417 23.879896769329168 12.11583567171678 3.2629060330985813 0 0 0
551 185 3 -0.834 27.517035348056645 9.778832216217484 7.0151640913255315 0 0 0
153 52 2 0.417 25.093985927001896 13.981221787465266 10.572430043840527 0 0 0
553 185 2 0.417 26.812737435035046 9.902673244821804 7.651455385239532 0 0 0
195 66 2 0.417 25.259275981080304 9.946978546691888 9.917748111907398 0 0 0
47 17 3 -0.834 27.299260356185048 12.46896279712661 3.9871058899999454 0 0 0
542 182 3 -0.834 24.66323902832942 11.585743903173023 4.851802244482896 0 0 0
543 182 2 0.417 25.50405701924589 12.005438422446783 4.669815688008434 0 0 0
48 17 2 0.417 27.97456536012481 12.567420045818166 4.658304591350624 0 0 0
194 66 3 -0.834 25.95260754316939 10.229356746624761 9.321268265208163 0 0 0
84 29 2 0.417 23.715975547042024 11.688332202287517 8.293008343336775 0 0 0
552 185 2 0.417 28.216396110687505 10.359413516136598 7.315261994794457 0 0 0
544 182 2 0.417 24.560186147132903 11.656384839377818 5.800818393689702 0 0 0
535 179 2 0.417 29.12052140806027 12.09944371566721 9.479729360980356 0 0 0
521 175 3 -0.834 28.817417547308697 12.62909743874221 6.345852316558676 0 0 0
522 175 2 0.417 29.113645577485237 12.20788458258661 7.152743164971376 0 0 0
533 179 3 -0.834 28.991519929992098 11.417029663559887 8.82100443453748 0 0 0
321 108 2 0.417 26.170451253222208 12.017362436140223 9.53515986141026 0 0 0
523 175 2 0.417 28.088344216196777 13.1857473188887 6.6194165952905 0 0 0
268 90 2 0.417 27.545098089599204 14.930779535280138 7.776210701522889 0 0 0
43 15 2 0.417 29.664185227729565 14.357105731667609 5.671618558503646 0 0 0
266 90 3 -0.834 26.932550811040397 14.286948758398049 7.420533516843077 0 0 0
267 90 2 0.417 26.586171611460944 13.83474091782308 8.189799767386678 0 0 0
320 108 3 -0.834 26.306490742747126 12.950567604239824 9.699051446597567 0 0 0
83 29 3 -0.834 24.21913236607448 11.366924619850021 7.544827549914535 0 0 0
322 108 2 0.417 27.132899379832608 12.991728755884326 10.18029580125435 0 0 0
500 168 3 -0.834 28.75967395251117 13.18113360618803 10.999558764515081 0 0 0
534 179 2 0.417 28.86264760559461 10.615404474487029 9.327992852664208 0 0 0
196 66 2 0.417 26.757900894706562 9.889180238554774 9.711161712597926 0 0 0
49 17 2 0.417 27.379863212464503 13.256015096027605 3.4483203184792446 0 0 0
498 167 2 0.417 25.765633712321836 14.742368656162887 6.144870840348342 0 0 0
41 15 3 -0.834 29.64155932216362 15.313760787882941 5.694722957423689 0 0 0
42 15 2 0.417 29.59992710021439 15.530401187772888 6.626157299846244 0 0 0
497 167 3 -0.834 25.122366469121843 15.153818940706879 5.567666633381238 0 0 0
499 167 2 0.417 24.275485543377442 14.864566611751297 5.907336900394588 0 0 0
152 52 3 -0.834 24.774305253458067 14.479523233235463 11.3245943059993 0 0 0
502 168 2 0.417 29.029111099748693 14.099634431767509 10.99753642538847 0 0 0
384 129 2 0.417 23.62453163588646 15.263616838811386 1.7546763114405077 0 0 0
179 61 3 -0.834 27.569989898597477 15.001538470833898 2.674301015778891 0 0 0
475 159 2 0.417 25.0216718194977 15.480074447092962 3.8110424501275424 0 0 0
474 159 2 0.417 25.805645665466177 15.571235875053228 2.519156106833633 0 0 0
473 159 3 -0.834 24.957092541438104 15.786245709996772 2.9064218674389073 0 0 0
181 61 2 0.417 28.193193837960212 15.146787272535619 1.9624328297022093 0 0 0
64 22 2 0.417 23.041648985784047 14.377082088140675 11.57401703633194 0 0 0
393 132 2 0.417 23.684497095220188 9.582963764206628 11.529725965868135 0 0 0
180 61 2 0.417 27.761666699942605 15.694526769379515 3.3061826641117524 0 0 0
501 168 2 0.417 28.944744482651036 12.878717226421912 11.888681493057968 0 0 0
567 190 2 0.417 29.324954858581503 15.78764419472238 9.27495803290342 0 0 0
566 190 3 -0.834 29.0457270563213 15.916176723114178 8.368451606672126 0 0 0
89 31 3 -0.834 29.354312488511916 15.902053644916347 11.243003484076972 0 0 0
306 103 2 0.417 25.24902595030164 16.15608760288549 10.92057853769639 0 0 0
90 31 2 0.417 28.637839465222978 16.466878189614082 11.53262806407221 0 0 0
60 21 2 0.417 22.80961808574157 16.539559233941276 9.358318085521827 0 0 0
91 31 2 0.417 29.99850089441029 15.950316838476349 11.949353919755975 0 0 0
154 52 2 0.417 25.34820689551819 14.220433975172199 12.04553750364445 0 0 0
394 132 2 0.417 24.7768609138547 8.674024980958281 12.051709603097025 0 0 0
594 199 2 0.417 16.70363561371987 16.691518942278304 7.995123067126879 0 0 0
243 82 2 0.417 16.330720517552532 16.795619070022404 4.756362283305346 0 0 0
390 131 2 0.417 20.278969971772064 16.91340150627707 4.542354929032241 0 0 0
391 131 2 0.417 18.874460421935755 17.187079368882536 4.0480380833500424 0 0 0
70 24 2 0.417 20.37885689983698 16.856434067208674 9.13277714872015 0 0 0
242 82 3 -0.834 15.67684796694179 17.394217744062583 5.117429168866773 0 0 0
244 82 2 0.417 15.186557110881315 17.702176411358245 4.3551886994702125 0 0 0
595 199 2 0.417 16.213832070641935 17.507158786082027 6.8175318256834 0 0 0
389 131 3 -0.834 19.67377998694714 17.626420557596322 4.33840232818738 0 0 0
295 99 2 0.417 21.854395245027696 17.23824208848828 11.813132179691912 0 0 0
69 24 2 0.417 19.850498436323416 17.376658277907538 10.452663337597768 0 0 0
68 24 3 -0.834 20.560215971885537 17.495934721330993 9.821539182161379 0 0 0
593 199 3 -0.834 16.64236977485426 17.589543240252212 7.669478841984301 0 0 0
294 99 2 0.417 22.087748545943708 18.732938714023483 11.870786804834962 0 0 0
51 18 2 0.417 21.99382070813279 23.263930218188577 11.141719515879931 0 0 0
264 89 2 0.417 21.482545847861406 20.39975729305994 10.248380259275494 0 0 0
131 45 3 -0.834 19.670067762862544 20.955251873673504 9.57479607901917 0 0 0
188 64 3 -0.834 18.74075894711259 19.21735933650704 6.7172169655772365 0 0 0
241 81 2 0.417 20.606878215829603 19.30433334355771 4.231515306421033 0 0 0
190 64 2 0.417 18.869345055918608 18.89614183697966 5.824737414309639 0 0 0
239 81 3 -0.834 21.368259432726305 19.88441486142613 4.238075909469846 0 0 0
189 64 2 0.417 17.943029053163194 18.781228808111123 7.016638957655572 0 0 0
414 139 2 0.417 20.371207120759806 19.1055920824889 7.329551464031466 0 0 0
413 139 3 -0.834 21.209630827036893 19.205167757372784 7.780531627139186 0 0 0
531 178 2 0.417 21.605598278227124 20.876222924221217 7.039335989348247 0 0 0
415 139 2 0.417 21.11998737874098 18.676265477574404 8.573297116726302 0 0 0
130 44 2 0.417 16.17485451928597 18.700838154519307 8.996279080757116 0 0 0
132 45 2 0.417 19.500376368713443 20.638109038506908 8.687744405511458 0 0 0
129 44 2 0.417 15.075158297793864 19.69803855540184 9.293190537214345 0 0 0
128 44 3 -0.834 15.850540809690203 19.28939860456732 9.67793583990482 0 0 0
133 45 2 0.417 19.044233715399596 20.481678511758037 10.122791178093946 0 0 0
426 143 2 0.417 19.974153267414955 22.587176936362965 10.257900610842624 0 0 0
237 80 2 0.417 17.241415965938923 19.446790727671228 10.826450172648771 0 0 0
427 143 2 0.417 19.52445444771847 24.016764552750367 10.4722542795951 0 0 0
238 80 2 0.417 18.14999975781533 18.342856247502276 11.32414592062153 0 0 0
425 143 3 -0.834 20.17016041708087 23.37421059932783 10.766230471291557 0 0 0
236 80 3 -0.834 18.092285337419785 19.29439506831631 11.237600706613586 0 0 0
532 178 2 0.417 21.649005272902006 21.219895048508715 5.565598972973173 0 0 0
530 178 3 -0.834 21.880791268816584 21.56077197776726 6.429497888857091 0 0 0
263 89 3 -0.834 22.254915472891735 20.256081435950883 10.795224708047455 0 0 0
240 81 2 0.417 22.102453862625644 19.31947275982489 3.9971659809537208 0 0 0
265 89 2 0.417 22.510379224707915 21.131999987194728 11.08460687875002 0 0 0
562 188 2 0.417 25.231735122801954 21.84215279158099 10.527268261653479 0 0 0
21 8 2 0.417 28.695921980675106 16.596266612257452 4.858721505441329 0 0 0
20 8 3 -0.834 28.076439448781436 17.092051320736715 4.323299991838171 0 0 0
527 177 3 -0.834 27.376218080005355 18.071123485519212 8.80071593262721 0 0 0
561 188 2 0.417 26.143532524030288 20.71610267549705 10.088483604173272 0 0 0
45 16 2 0.417 24.93273039022714 21.656217416846257 7.214924456166531 0 0 0
66 23 2 0.417 23.21995479823331 19.01481219258759 9.834840853327755 0 0 0
22 8 2 0.417 27.51346808702384 17.53648421782322 4.9571589655074275 0 0 0
302 102 3 -0.834 23.154487944063735 17.68359038088025 4.079833363158961 0 0 0
528 177 2 0.417 26.953827794176156 18.058093728184033 7.941846312341999 0 0 0
303 102 2 0.417 22.509709498180886 16.98396098190237 4.184817132444889 0 0 0
304 102 2 0.417 23.859522107069765 17.285536315053026 3.569224902647503 0 0 0
218 74 3 -0.834 23.929055437689115 23.243944140607425 6.991766163222402 0 0 0
101 35 3 -0.834 27.724478016483808 20.849073537390275 8.939723125046097 0 0 0
111 38 2 0.417 25.82029620656119 16.794677872323433 6.03356656966718 0 0 0
65 23 3 -0.834 23.644558794863944 18.31097065503764 9.344375788335986 0 0 0
529 177 2 0.417 26.74246623679827 17.65654197491532 9.386138344211203 0 0 0
112 38 2 0.417 25.36312959608302 18.200770595388416 6.358832216841109 0 0 0
78 27 2 0.417 29.952200282254033 22.548428570515977 10.48979572726964 0 0 0
52 18 2 0.417 23.48402557989292 23.229604168695523 10.877129434008706 0 0 0
46 16 2 0.417 24.82383494078828 20.155826438976547 7.045030085545689 0 0 0
166 56 2 0.417 23.485075310179674 18.389166304767688 5.670696305401069 0 0 0
582 195 2 0.417 25.471946595750186 24.125366384791718 9.620394780224666 0 0 0
79 27 2 0.417 28.708185134523298 21.77877280872521 10.099984386044147 0 0 0
103 35 2 0.417 27.93554095002287 19.91544369624879 8.945353752429533 0 0 0
77 27 3 -0.834 29.19453642069554 22.096220365389303 10.860857228557256 0 0 0
164 56 3 -0.834 23.622274224096966 18.77643073729661 6.535251432698273 0 0 0
307 103 2 0.417 24.885103245751804 17.43427722579314 10.195535057949803 0 0 0
110 38 3 -0.834 26.144777619213 17.649970774332814 6.315398783194193 0 0 0
102 35 2 0.417 27.03435620819808 20.935125346050405 8.282020387724028 0 0 0
560 188 3 -0.834 25.586031535180435 21.000058341739745 10.812917532852639 0 0 0
568 190 2 0.417 28.58964003226213 16.75771544283743 8.374864006255104 0 0 0
581 195 3 -0.834 24.817802836654092 23.42706446381168 9.646935710603382 0 0 0
305 103 3 -0.834 25.60375455671356 17.006427957064055 10.661083413788953 0 0 0
583 195 2 0.417 24.49159016000244 23.369557383995982 8.748872882447701 0 0 0
165 56 2 0.417 22.741153467414833 18.977043241667577 6.850898382746922 0 0 0
67 23 2 0.417 23.72718344872833 18.65438890005918 8.454728471601477 0 0 0
76 26 2 0.417 26.86572844426554 17.502747772418058 11.860271630342728 0 0 0
220 74 2 0.417 23.865156815743582 23.925527446750003 6.322737832323371 0 0 0
44 16 3 -0.834 25.377931119566718 20.836031758588277 7.42782721216307 0 0 0
50 18 3 -0.834 22.817291479853356 22.924767061638633 11.492578088987004 0 0 0
219 74 2 0.417 23.154036202151264 22.699262720994458 6.854226780443518 0 0 0
283 95 2 0.417 26.85478802494571 20.613030344498906 12.122192684584675 0 0 0
33 12 2 0.417 24.683855522878478 19.97368699369809 12.266078360062023 0 0 0
282 95 2 0.417 28.311760139384276 21.023944285511075 12.105529508492719 0 0 0
407 137 3 -0.834 21.19507288451938 3.247000056785015 12.45563274628352 0 0 0
517 173 2 0.417 19.89827169821688 12.055198989642081 12.378835638816495 0 0 0
125 43 3 -0.834 22.513932411298548 10.79120763300819 12.443674000333743 0 0 0
293 99 3 -0.834 22.269785240448535 17.919679198466824 12.3416505270903 0 0 0
549 184 2 0.417 18.427424795669765 2.839602246727741 12.469062259698594 0 0 0
75 26 2 0.417 27.707271655068105 18.591877883928657 12.490745934664938 0 0 0
276 93 2 0.417 20.176774031943236 4.906644221007519 14.801477911404385 0 0 0
485 163 3 -0.834 18.599139556209177 4.019030521425604 15.236154037427438 0 0 0
487 163 2 0.417 17.926781095906573 4.598672956203653 14.878121373866941 0 0 0
486 163 2 0.417 18.529032272270847 3.219360348276258 14.714762111444964 0 0 0
275 93 3 -0.834 20.918097199693992 5.3131336333179515 14.352643906882637 0 0 0
277 93 2 0.417 21.139410535608224 4.700324901199363 13.65140892414318 0 0 0
301 101 2 0.417 21.98384758139795 4.458020215206646 18.844924418765537 0 0 0
406 136 2 0.417 19.003754679154717 5.282594354542979 16.597893593386512 0 0 0
299 101 3 -0.834 21.183369711045316 4.9809881669570215 18.889426635156898 0 0 0
300 101 2 0.417 20.93298631995812 4.958383240756175 19.813027354094277 0 0 0
92 32 3 -0.834 17.15343619697081 6.014636191538638 13.908584512636182 0 0 0
405 136 2 0.417 19.926603601851347 5.676900846933769 17.73136964646453 0 0 0
404 136 3 -0.834 19.285902035983582 6.035519835578989 17.117255846853144 0 0 0
93 32 2 0.417 16.669929655647678 6.596164961661822 14.49535326058438 0 0 0
314 106 3 -0.834 20.766017932171263 5.5534185556064095 21.56111876380434 0 0 0
315 106 2 0.417 20.15380361599334 5.36034760479593 22.27115693702617 0 0 0
160 54 2 0.417 21.930948874276254 6.582091707581636 18.30174542202883 0 0 0
316 106 2 0.417 20.55645546473041 6.450401747785368 21.300820597802268 0 0 0
88 30 2 0.417 20.376161969979982 7.110336394682767 14.628299317982274 0 0 0
158 54 3 -0.834 22.397616187752792 7.349235555039646 17.970150276332355 0 0 0
548 184 3 -0.834 18.684818944365425 2.1092130162867333 13.031664605395859 0 0 0
94 32 2 0.417 17.47430173375512 6.588428990869323 13.212846890097062 0 0 0
87 30 2 0.417 19.623339457975067 7.724236995497278 15.789453771469088 0 0 0
232 78 2 0.417 18.220701916531368 7.547500326891113 17.537719567897103 0 0 0
86 30 3 -0.834 20.12153821333866 7.9527842399189845 15.004720162969496 0 0 0
557 187 3 -0.834 16.29925510076003 8.129815796023172 15.387900884477853 0 0 0
287 97 3 -0.834 23.609543859281313 19.490456377877827 17.897462744676183 0 0 0
147 50 2 0.417 17.562431759914944 4.803716463124843 12.551742154353704 0 0 0
408 137 2 0.417 20.422184761465164 2.7037291281715334 12.60970382699258 0 0 0
550 184 2 0.417 18.245306457754857 1.3479645213978872 12.652766355162688 0 0 0
250 84 2 0.417 22.9617346294474 22.42645333233615 13.288782544567907 0 0 0
422 142 3 -0.834 20.270900647314196 8.141558191338175 20.85683106518507 0 0 0
559 187 2 0.417 16.86588992847938 8.321126934245747 16.13527328434807 0 0 0
448 150 2 0.417 22.414273966092953 6.078629147108828 15.00603150989346 0 0 0
9 4 2 0.417 22.571022962655846 5.357689805409896 21.6352333647163 0 0 0
159 54 2 0.417 22.746374488664546 7.070515286033121 17.123433275904635 0 0 0
446 150 3 -0.834 23.15766885739441 6.416006758408324 15.505812367367804 0 0 0
464 156 3 -0.834 23.676805011961385 3.751989885909203 19.168946323001265 0 0 0
465 156 2 0.417 24.04278430852996 2.8909638417309553 19.371257948925187 0 0 0
10 4 2 0.417 23.60135101437562 4.853534511562599 20.647231617613553 0 0 0
8 4 3 -0.834 23.50987075377537 5.368401656166433 21.448971254187384 0 0 0
466 156 2 0.417 24.068587882593103 3.9877073411060975 18.328000892575204 0 0 0
308 104 3 -0.834 24.719602284274295 4.41375712057474 16.707859744422684 0 0 0
309 104 2 0.417 25.187474531703245 4.061434548774659 15.950755936850523 0 0 0
143 49 3 -0.834 26.135427247167737 4.2478760012428305 14.250471841771791 0 0 0
145 49 2 0.417 26.802687687990655 4.611430678440886 13.668385073337653 0 0 0
144 49 2 0.417 25.34679848566359 4.198475943554653 13.710230468989593 0 0 0
357 120 2 0.417 27.72568421557046 6.67253026149759 13.761417665916019 0 0 0
310 104 2 0.417 24.21841226999103 5.150689431151006 16.35860133024043 0 0 0
541 181 2 0.417 26.583359920385213 5.477461842032255 16.776098396209157 0 0 0
539 181 3 -0.834 27.107540825032558 6.278245399228574 16.76144739590797 0 0 0
447 150 2 0.417 23.684926243203794 6.888921356666826 14.86192669469591 0 0 0
577 193 2 0.417 25.31828258700048 5.4011328183894864 21.75363753412662 0 0 0
358 120 2 0.417 27.23464804667187 6.941576800725557 15.167972167152069 0 0 0
540 181 2 0.417 27.24449785795082 6.492338869631611 17.68429266679308 0 0 0
575 193 3 -0.834 26.248971795041573 5.622661037372652 21.784929619453717 0 0 0
109 37 2 0.417 26.82500406814983 6.284396380206599 20.261944530191393 0 0 0
576 193 2 0.417 26.31638920386644 6.278319317832349 22.479049572595756 0 0 0
107 37 3 -0.834 26.982133978346912 6.786928744581201 19.4625585026338 0 0 0
361 121 2 0.417 23.675184850016247 7.166835938822608 21.752413534150467 0 0 0
356 120 3 -0.834 27.22560771681225 7.301823197152557 14.28118537724992 0 0 0
508 170 2 0.417 29.98492871946676 7.199572095739525 20.393261514462935 0 0 0
507 170 2 0.417 28.580045578930843 7.468689174575722 19.897502560878586 0 0 0
108 37 2 0.417 26.15348917742353 7.235608984197516 19.294391328619863 0 0 0
438 147 2 0.417 25.56501395333952 7.598448583940478 13.904109186805941 0 0 0
437 147 3 -0.834 24.67643343109809 7.928812501544436 13.771747239102158 0 0 0
372 125 2 0.417 22.953609265397827 3.641333286123718 13.026680184050619 0 0 0
468 157 2 0.417 23.84115237985313 8.022519716196923 18.740105934900317 0 0 0
256 86 2 0.417 29.493899484472824 5.293465238663832 12.650268167267884 0 0 0
371 125 3 -0.834 23.739751256594484 4.174516125541656 12.908601783126649 0 0 0
506 170 3 -0.834 29.38958726655388 7.910072249720045 20.15453171137553 0 0 0
503 169 3 -0.834 26.222318447263902 7.993674404848976 23.386517430917614 0 0 0
359 121 3 -0.834 23.967784364809404 8.07794418961765 21.774981528494706 0 0 0
297 100 2 0.417 23.2507923018195 7.253227760064041 12.690739783767349 0 0 0
373 125 2 0.417 23.408904360453118 5.060719781547713 12.762211074305588 0 0 0
254 86 3 -0.834 28.625557839563232 5.691912275105175 12.591478923550195 0 0 0
504 169 2 0.417 26.299786503880885 8.222640344237165 24.312697580371122 0 0 0
360 121 2 0.417 24.69514530997064 8.081058873503984 22.397218364489806 0 0 0
467 157 3 -0.834 24.672146190661906 8.243734720173835 19.160533424550962 0 0 0
424 142 2 0.417 20.344725262959535 8.47428976850014 19.962355652494402 0 0 0
230 78 3 -0.834 18.07116227820875 8.491673144590264 17.48852283748246 0 0 0
222 75 2 0.417 21.27372064135258 8.647570951349122 18.314546173862148 0 0 0
423 142 2 0.417 20.165301537131775 8.925121351934779 21.396389620410304 0 0 0
231 78 2 0.417 18.888841151844783 8.880637374738692 17.798930339032758 0 0 0
142 48 2 0.417 21.30279409678048 9.261053916672651 15.58858632482209 0 0 0
221 75 3 -0.834 20.554125570780723 9.273824652615007 18.393506482082465 0 0 0
558 187 2 0.417 15.92507183893982 8.977360021799186 15.147288005261752 0 0 0
429 144 2 0.417 19.944317807166154 9.510340815784957 14.014456281116844 0 0 0
223 75 2 0.417 20.776986870952335 9.974036977695805 17.78009366487738 0 0 0
433 145 2 0.417 21.92090272823574 10.506091707604835 21.08927090389918 0 0 0
17 7 3 -0.834 20.149271116108704 10.76770502149395 21.76000045051075 0 0 0
15 6 2 0.417 16.87813165957787 10.090728940041885 17.727617955045318 0 0 0
140 48 3 -0.834 21.73421766874132 10.052508605939 15.910627237663496 0 0 0
18 7 2 0.417 19.842266938840343 11.252315515180676 20.99374534168892 0 0 0
428 144 3 -0.834 19.83083236909362 10.343712749926691 13.557443783298089 0 0 0
430 144 2 0.417 19.552427233633022 10.955272195240697 14.239161150308153 0 0 0
311 105 3 -0.834 15.974852010442564 10.844284413427948 14.795013449925522 0 0 0
313 105 2 0.417 16.110263148577385 11.736547005076059 14.475997946116221 0 0 0
225 76 2 0.417 21.34627767576705 11.648715471563932 16.7084171614772 0 0 0
479 161 3 -0.834 18.80067511094941 12.166609842274507 15.311389891943918 0 0 0
480 161 2 0.417 18.21610599882455 12.667673288636681 14.742660670014208 0 0 0
312 105 2 0.417 15.930750299616596 10.933902267142338 15.746994884547656 0 0 0
481 161 2 0.417 18.486932150592697 12.34777675352728 16.197382174768187 0 0 0
14 6 3 -0.834 16.333902102588844 10.845323772630381 17.50259639108236 0 0 0
16 6 2 0.417 16.258596531703493 11.338953853226078 18.31923140818367 0 0 0
272 92 3 -0.834 16.72677624666291 13.47310578360288 13.794915062044623 0 0 0
224 76 3 -0.834 21.28908249952759 12.29576186910446 17.411484870256892 0 0 0
226 76 2 0.417 22.138094141021963 12.24825324668961 17.85099197461327 0 0 0
417 140 2 0.417 20.079723545843606 12.406438270169515 18.898227250509176 0 0 0
19 7 2 0.417 19.833667674308987 11.275611504841656 22.507442418875566 0 0 0
274 92 2 0.417 16.43792254247864 14.225465478915432 14.311401436895377 0 0 0
416 140 3 -0.834 19.56463298313303 12.566796199234755 19.688927000006835 0 0 0
490 164 2 0.417 20.668978687958646 13.850007803938652 16.707898805555047 0 0 0
412 138 2 0.417 17.72271479767639 12.486099382568588 19.70546175625398 0 0 0
410 138 3 -0.834 16.775776745195206 12.624160878938053 19.683203572531262 0 0 0
183 62 2 0.417 21.9232351022282 14.471020868615511 15.310464849765319 0 0 0
418 140 2 0.417 19.756381088168315 13.47567903059734 19.92002461608223 0 0 0
340 114 2 0.417 17.14476600932933 13.488344925971886 18.03984181920142 0 0 0
411 138 2 0.417 16.591112591988495 13.147119190564792 20.463369816679172 0 0 0
569 191 3 -0.834 19.583194908543426 12.814702961753072 23.532815673470296 0 0 0
570 191 2 0.417 19.652295931539065 12.977391843585497 24.47355575027575 0 0 0
488 164 3 -0.834 20.224171919725034 14.586506854729926 16.288434008553217 0 0 0
338 114 3 -0.834 17.553848015023686 13.84202725549964 17.250034061666465 0 0 0
489 164 2 0.417 19.298240990468496 14.45554361653119 16.492725016180792 0 0 0
336 113 2 0.417 19.915665235080226 15.16464975254596 14.473571652210483 0 0 0
339 114 2 0.417 16.85337645710348 14.326753976065584 16.81344118692331 0 0 0
571 191 2 0.417 20.440416066630743 13.058437261248239 23.183518471587593 0 0 0
355 119 2 0.417 18.391652747091868 13.65463715233462 22.439264399895404 0 0 0
572 192 3 -0.834 22.07372645164381 13.464481047785277 22.54920289288533 0 0 0
574 192 2 0.417 22.319373533493334 14.324260749676725 22.207620299177186 0 0 0
353 119 3 -0.834 17.939477331492544 14.168500482921715 21.7701479379323 0 0 0
182 62 3 -0.834 22.539629876423103 14.6445538132742 14.598999266200245 0 0 0
354 119 2 0.417 18.614035128701698 14.747975310721735 21.41600820356579 0 0 0
335 113 3 -0.834 19.620574346238538 15.358925526394138 13.583954693269527 0 0 0
29 11 3 -0.834 20.042984871260487 15.299773355980665 20.145784872940375 0 0 0
596 200 3 -0.834 15.993280055476934 15.65459833760832 15.328329596090263 0 0 0
30 11 2 0.417 20.93745656299662 15.541545374831509 20.38599801000684 0 0 0
31 11 2 0.417 19.82754260834101 15.875623898654284 19.41215099560072 0 0 0
324 109 2 0.417 16.620329359609883 9.856926847061782 13.331419970307444 0 0 0
547 183 2 0.417 20.50250092382652 16.18027645512179 17.114810790008384 0 0 0
598 200 2 0.417 15.180502961625393 16.13280211092729 15.492495148720886 0 0 0
597 200 2 0.417 16.650155283460162 16.337415061355802 15.192240452854552 0 0 0
273 92 2 0.417 16.80443585535406 13.810278302302391 12.902435797850915 0 0 0
63 22 2 0.417 22.069831642081645 14.551351578359933 12.721665629707674 0 0 0
325 109 2 0.417 18.082678360771798 9.857727657729189 12.939717987313923 0 0 0
337 113 2 0.417 19.63213116969284 14.512518570422646 13.137072876819861 0 0 0
127 43 2 0.417 21.73564331857374 10.546190689708613 12.944145863804218 0 0 0
323 109 3 -0.834 17.214489170840746 9.60769284511344 12.62353785621897 0 0 0
32 12 3 -0.834 24.307393445247797 19.696274630041128 13.101277001595765 0 0 0
175 59 2 0.417 24.904797836779494 19.68202222586981 14.810150261564127 0 0 0
573 192 2 0.417 22.78320342734075 12.884619741901416 22.272358371698964 0 0 0
469 157 2 0.417 24.475222154927206 8.241554035559375 20.097263064294328 0 0 0
141 48 2 0.417 22.657816926456068 9.928206540874559 15.692108386120198 0 0 0
431 145 3 -0.834 22.831132543971155 10.430729826737181 20.802838129564016 0 0 0
184 62 2 0.417 22.754395937622398 15.573035062483763 14.688667486192951 0 0 0
554 186 3 -0.834 23.098086657277058 15.61432068206634 21.196381199502923 0 0 0
432 145 2 0.417 23.143624085668314 9.621213653363496 21.206911477858593 0 0 0
455 153 3 -0.834 26.958417851709076 16.05272467918993 14.701541297559304 0 0 0
439 147 2 0.417 24.596417389897272 8.656162467755285 14.388833142746625 0 0 0
478 160 2 0.417 28.788748641800048 8.930575662450957 21.57738753081799 0 0 0
505 169 2 0.417 26.93915289039867 8.465047087262501 22.96201335351619 0 0 0
247 83 2 0.417 27.70061700223539 8.864790404178553 13.611571782461395 0 0 0
73 25 2 0.417 28.9745885861053 9.35931602836463 19.015933294883123 0 0 0
476 160 3 -0.834 28.16938473425477 9.41905113604431 22.119623613500433 0 0 0
463 155 2 0.417 25.436042016077106 9.51797698793988 18.247828430842702 0 0 0
477 160 2 0.417 28.205438875356062 10.312938549409774 21.779174940766868 0 0 0
71 25 3 -0.834 28.56592000241518 10.13078691288184 18.62342055573285 0 0 0
169 57 2 0.417 25.033153169676122 10.173366661626229 16.150763685254983 0 0 0
167 57 3 -0.834 24.43229449850881 10.021880334825683 15.42120203035265 0 0 0
462 155 2 0.417 26.78987880692282 10.151745338930885 18.00832918688303 0 0 0
461 155 3 -0.834 25.859412719905656 10.256026550324679 17.809319208615292 0 0 0
246 83 2 0.417 28.16824190776832 10.260813367876848 13.96419444018975 0 0 0
204 69 2 0.417 23.515018748588545 11.36303103680921 19.2914033442718 0 0 0
72 25 2 0.417 28.677174384252975 10.820427641469772 19.277836485656007 0 0 0
585 196 2 0.417 24.121303656242098 11.700949160582914 21.299248658052353 0 0 0
493 165 2 0.417 28.5659223483993 10.865707946479969 16.870392003425355 0 0 0
233 79 3 -0.834 28.636575936302563 11.903716912321299 20.787371521395784 0 0 0
584 196 3 -0.834 24.60187750444908 12.436003220337208 21.68001404463935 0 0 0
586 196 2 0.417 25.274685846289653 12.644396781938232 21.031830841145993 0 0 0
234 79 2 0.417 27.79356717008696 12.250148141038377 20.49485497539931 0 0 0
235 79 2 0.417 29.203754250384687 12.672366731617865 20.848408196735534 0 0 0
205 69 2 0.417 24.478599346896868 11.483126364030463 18.129944872591594 0 0 0
201 68 2 0.417 28.899822271715845 12.276134290381556 14.605566339133958 0 0 0
202 68 2 0.417 29.33289532121834 13.604650742464882 14.022995720313661 0 0 0
491 165 3 -0.834 28.281882357260997 11.345102017299668 16.092098368798965 0 0 0
170 58 3 -0.834 24.056991910200566 12.415091816743596 14.00592711793233 0 0 0
168 57 2 0.417 24.387928838045383 10.86385851832933 14.96805366603948 0 0 0
172 58 2 0.417 23.58362884945022 13.199230390644848 14.283966221223457 0 0 0
492 165 2 0.417 27.69566057331372 12.022945248704426 16.428416280926633 0 0 0
200 68 3 -0.834 28.972173341942206 12.75241522345403 13.778425080201007 0 0 0
171 58 2 0.417 24.93375800430904 12.72961732672051 13.785457522692623 0 0 0
434 146 3 -0.834 27.041573198954154 13.791027885195474 16.994655176374916 0 0 0
589 197 2 0.417 26.40370120980234 13.124450771747538 18.787825532409528 0 0 0
203 69 3 -0.834 23.739986120894383 11.924389077345296 18.549441766366197 0 0 0
587 197 3 -0.834 26.433190316711563 13.170343974855582 19.743475728610356 0 0 0
435 146 2 0.417 27.88919183590554 14.209258380891924 17.145874471800088 0 0 0
436 146 2 0.417 26.474839365616525 14.500156700218364 16.69103268862945 0 0 0
472 158 2 0.417 23.814219971998057 13.796969803441197 18.59584992574151 0 0 0
588 197 2 0.417 26.536625869459534 14.10228967593921 19.93589252106431 0 0 0
95 33 3 -0.834 29.607546543949898 15.305183569098311 14.652286007942859 0 0 0
13 5 2 0.417 24.904279347127908 13.538164499901796 23.03301983974372 0 0 0
97 33 2 0.417 29.91113927178723 15.271611745862597 15.559448419402203 0 0 0
278 94 3 -0.834 29.29650300527885 15.336810459919324 17.542154749028363 0 0 0
470 158 3 -0.834 23.79616609634679 14.752107612647055 18.65603836308247 0 0 0
280 94 2 0.417 29.56678088634645 15.15568037480454 18.442364983995276 0 0 0
471 158 2 0.417 23.59371415896141 14.930913829496912 19.574340507081843 0 0 0
362 122 3 -0.834 29.451003163251514 14.823994527438353 20.40530969598776 0 0 0
11 5 3 -0.834 25.050240360261892 14.195047390589096 23.713784197131645 0 0 0
12 5 2 0.417 24.58268514124006 13.857066802033541 24.477587373559704 0 0 0
538 180 2 0.417 26.567318130300972 14.449730472542369 13.87551186294539 0 0 0
537 180 2 0.417 27.182575788711166 13.142733749946844 13.422617205498296 0 0 0
536 180 3 -0.834 26.383723818534865 13.666027346097726 13.357490191826637 0 0 0
363 122 2 0.417 28.594122835034483 15.249026947321829 20.4419233365377 0 0 0
364 122 2 0.417 29.88664854763093 15.092117607046417 21.214356437370647 0 0 0
96 33 2 0.417 28.71827002515657 15.654673316180546 14.70961177892496 0 0 0
116 40 3 -0.834 26.838447273322924 15.79593185201576 20.427264743812497 0 0 0
214 72 2 0.417 25.28662478689309 15.77120499263916 23.053250302313025 0 0 0
57 20 2 0.417 24.344698547342425 15.844488133807694 17.291717256915888 0 0 0
555 186 2 0.417 23.864603158641486 15.914160522359891 21.685048150604366 0 0 0
117 40 2 0.417 26.286631140865325 15.981907878242122 21.186976291185076 0 0 0
279 94 2 0.417 29.111008262676126 16.275810534930468 17.53160896906665 0 0 0
56 20 3 -0.834 24.7894921904074 16.36706289495992 16.624395297875537 0 0 0
245 83 3 -0.834 28.04345151134693 9.669184621278326 13.22214422561189 0 0 0
126 43 2 0.417 23.035808144581484 11.314157570641626 13.052290661493238 0 0 0
457 153 2 0.417 26.35715977398127 16.4746326222104 15.31531526992804 0 0 0
118 40 2 0.417 26.59129256319344 16.45932421291987 19.782999430141874 0 0 0
556 186 2 0.417 22.78012863978694 16.396374771721472 20.745217855037843 0 0 0
212 72 3 -0.834 25.322038482005446 16.590206060246956 22.559057446583527 0 0 0
600 201 2 0.417 18.548327283414206 16.866524574606757 14.253802872906386 0 0 0
545 183 3 -0.834 20.444444736199266 16.903060053661914 17.739670438248677 0 0 0
178 60 2 0.417 21.70703223160243 17.36112789933539 18.90506537425524 0 0 0
599 201 3 -0.834 17.91375376135384 17.476953610030417 14.629206137019784 0 0 0
546 183 2 0.417 20.447797508504152 17.690998952245536 17.19618269123114 0 0 0
350 118 3 -0.834 20.776204605716536 19.107740330162347 16.057469714147263 0 0 0
352 118 2 0.417 21.019066685650017 19.94573767606328 16.45119095960163 0 0 0
351 118 2 0.417 20.286874014737634 19.345469741797075 15.269891457881757 0 0 0
6 3 2 0.417 22.15209117111595 17.946298234011362 15.496301590320247 0 0 0
601 201 2 0.417 18.265824635811942 18.343737986605984 14.426801452742772 0 0 0
591 198 2 0.417 21.59532457908612 22.39138750722337 16.910951720032966 0 0 0
176 60 3 -0.834 22.316140645271403 17.6102186216449 19.600182820823093 0 0 0
590 198 3 -0.834 21.986917677098386 21.540037838424034 16.715777611714255 0 0 0
452 152 3 -0.834 19.191398335598166 19.837746446138826 13.802730739054883 0 0 0
453 152 2 0.417 19.378288040654528 20.776140787172594 13.82982707593367 0 0 0
211 71 2 0.417 20.92649148076617 22.313773881006576 13.791720705808462 0 0 0
592 198 2 0.417 22.349070695200695 21.63866275554534 15.835234092728584 0 0 0
209 71 3 -0.834 20.00948424907864 22.470342957359463 13.56629099457163 0 0 0
454 152 2 0.417 18.846137183833324 19.68713553625516 12.922755535301704 0 0 0
210 71 2 0.417 20.04346754255469 22.923834205293346 12.724017315710705 0 0 0
289 97 2 0.417 24.22593551987247 19.554206069625447 17.167907418610223 0 0 0
213 72 2 0.417 25.42701595058857 17.268640092066313 23.22609721248918 0 0 0
281 95 3 -0.834 27.696925183890183 20.43279464011258 12.54000177516575 0 0 0
74 26 3 -0.834 27.558174508240125 17.646469724250395 12.505332292974286 0 0 0
34 12 2 0.417 23.759934398220953 18.943090150222996 12.879377453448534 0 0 0
7 3 2 0.417 22.539513926036403 17.560341598471513 14.084622790723786 0 0 0
58 20 2 0.417 24.086825196990937 16.67099514224154 16.049829649372544 0 0 0
5 3 3 -0.834 22.702271216313196 17.339028519373304 15.001560922781053 0 0 0
366 123 2 0.417 25.35164208988088 18.453230030854744 18.926286582998642 0 0 0
173 59 3 -0.834 25.23483825542189 19.740333057342916 15.706761642701723 0 0 0
123 42 2 0.417 28.379757369828216 20.772693254252122 15.61935383805291 0 0 0
115 39 2 0.417 27.60129740295709 18.010108423135854 17.74497163802956 0 0 0
122 42 3 -0.834 27.966730197210687 19.96244012179704 15.320802658193463 0 0 0
288 97 2 0.417 22.97044346257375 20.183800476815975 17.73292638702357 0 0 0
174 59 2 0.417 26.181028318386506 19.846008627357005 15.607796766519712 0 0 0
365 123 3 -0.834 25.967705243212595 17.758004191278985 18.695277418889788 0 0 0
113 39 3 -0.834 28.421338255910598 17.957763576149333 17.25402588452076 0 0 0
249 84 2 0.417 23.293690297817516 21.063220622617067 13.857375104696327 0 0 0
124 42 2 0.417 28.023021253535646 20.002024353563282 14.366076228844753 0 0 0
456 153 2 0.417 27.134769641678496 16.721797189828944 14.04011751775032 0 0 0
114 39 2 0.417 28.334088294989108 18.62127593211044 16.569647227802484 0 0 0
177 60 2 0.417 22.87513381365062 18.277321170259352 19.201754149541387 0 0 0
248 84 3 -0.834 22.755963876758564 21.839060026020917 14.01601827039865 0 0 0
367 123 2 0.417 25.589723574980365 17.351831365147564 17.91528015825232 0 0 0

Velocities

1 0 0 0
331 -0.0004534375096396662 -4.283182091366919e-05 -0.0016001431661641235
330 -0.0019836057950114905 0.0011230081376638608 -0.0002806692559026237
329 -0.0007993131872654258 0.0003751070682801711 -0.001213831180115727
185 -0.000997274979492351 0.0004439151552083525 0.0001226827462477851
55 -0.0010713378769089978 0.0005984572235892539 -0.002152279896604199
53 -0.0005124995031821018 0.0007003674910278107 -0.0019708554334764285
332 -0.0007700620898424738 -0.001591978270748968 -0.000530155449389679
54 -0.0001572060210477217 0.00043778869492283975 -0.002356515156206584
519 -0.0003327939972085537 0.0007702218839978191 -0.0013436058063843695
286 0.004748426027919648 0.0005719233916559034 -0.0022605540587098583
285 -0.0007188725916245763 0.0003574164874943454 0.0023063175128662885
284 -0.00047538561830033675 -0.0005243889493061056 -5.821543706112513e-05
148 0.005052387274640622 0.0013089961883258764 0.005599619046191655
460 -0.0017095855252236263 0.0002524470348404651 -0.002886032549487676
270 -1.41590494977507e-05 -0.002190464798397266 -0.0019788598755231227
564 -0.0025090714684257876 -0.0023824925022092954 -6.647317771772893e-05
563 -0.0001635318895881522 0.0009559417104898917 0.0001985552446922521
409 -0.00015234726478928923 0.0009229018617624726 0.0006183320212795757
298 -0.0015084385260668632 0.00011704225203798398 0.002232895601262879
146 -0.002055547047174094 0.0004395106524140509 0.0008325653560738309
518 -0.00047066409759106845 -0.0008134668039308231 0.00023015429251636266
40 -0.00015125344900836126 0.0007940359313426857 -0.0023434627550970475
458 -0.0015270393594048535 -0.0013157227091492602 -0.0003438312880478947
271 0.0024101327239109817 -0.00018061676242516711 0.0002492394970763063
269 0.0014576908150018958 -0.0009777217589417109 -0.0006122976141293433
186 -0.00039982836665218097 -0.0002903929021953081 0.0006746451661033532
333 -0.00020922536203732585 -0.0029058131477749665 0.003925823234078466
187 -0.0025154587540004852 0.0019194098843633095 -0.0012651793423231793
565 -6.687786377374069e-05 0.0015549481325588168 -0.0012149062858608291
38 0.0006033536652130131 0.00022424504884532522 0.00011618787590142457
334 0.0020320309247089307 0.0012252484818442793 0.0009003863747864581
291 -0.0018377870897239668 -0.001512811126942731 0.00291324459379847
396 -0.00286790412299383 0.0006186390989858824 0.0015662941579766357
395 -0.0004111172969042766 0.00036576362276983013 0.0012569305220906197
290 6.693257611145662e-05 -5.3115015250160695e-05 -0.00024828635515778893
343 -0.0006137870364487572 0.00042440632417791753 0.0020902011133888928
451 -0.0005647799213294262 0.0018052468086985937 0.0026795126509360054
397 0.0018524836242819458 -0.001726912241287098 0.00223543808938276
134 0.0012304946367810649 0.000310716576291569 -0.00020919927082493724
292 -3.708514173044599e-05 -0.0015872205144196977 -0.0006179428132936401
136 0.002602253011044943 -0.0028350752236058585 -0.0003540720628110914
341 -0.0003532653180243214 -0.0007955193214397946 0.0001457120464419433
449 -0.00016066603760214507 0.002465279190403388 0.0014319746984872046
342 0.0010579919161029427 0.00132172773525328 -0.00021866579852739633
135 0.0012360819290717264 1.3145867701656856e-05 -3.0988360888362206e-05
496 -0.003177878929159752 -0.0005590596236740793 -0.0006798880592017785
119 -0.0015445796569482227 -0.0017832821183032819 0.0005273369764515949
120 -0.000631077629501229 0.0008554324032252779 0.0013499384464664543
495 0.002624537413875674 -0.0020134562718912507 -0.0020979852041964095
121 0.0018252880426735739 0.0008435865629003975 0.002417730273663901
161 -0.00015575507137216029 0.0009092337030001271 0.0005934694730652361
162 -0.0005320921194810227 0.0001391653952626003 0.0007291043148675122
163 4.6961587157446605e-05 0.0008938964292762202 0.0003964560544932538
207 4.346143815674965e-05 0.0008399744044152067 -5.75346045567985e-05
349 -0.0018447019400468958 -0.0023283352593630223 -0.00023386036216863955
348 0.0019962340982529873 0.004397831676600998 -0.0011344045076073705
347 0.0010241875375716684 -0.001771666955647778 -0.0008322646872053424
208 0.002721914708145013 -0.0007487524227541839 0.0027133121257864267
494 0.0017547140271107213 -4.1945229302628255e-05 -0.00010752024720795966
228 0.0008614305547174132 -0.0004940783396472772 -0.0006549838870621085
370 0.001822240966576006 0.0002664682529066926 -0.0015623734653156915
206 -0.0007693974686771692 0.0009691460909055021 -0.0010686536227497842
319 0.002330020273030321 -8.079947230236452e-05 0.0016657578002045002
317 0.0017853769730782404 0.0010671757355991622 0.001057380615591391
227 0.000659128110155119 0.00037304340945006574 -0.0006070461217601242
229 0.00031152697711370035 0.0015845788529892393 -0.0005090170737208255
259 -0.0028216557033489465 -0.0005951075534680421 -1.3037114541795086e-05
36 0.0007965115124330893 0.002291856207038182 -0.0012775210112389418
35 -3.067134357587172e-05 -0.00025254472120168155 -0.0007945195695128886
37 -0.00028947490214567697 0.0013074330250979658 -0.0009343858406400728
368 0.0016780513570514518 4.470361622763272e-05 -0.0016267825225288715
369 0.001962313163967231 -0.00018396937036151706 -0.001890508833817469
80 0.001566121358696104 0.00012125411167147482 0.0018152316559204914
82 -0.0010968854594758921 0.0009663155285962809 -0.0006222838163477129
403 -0.0034306443570421936 -0.0029823139041304765 0.0006948165894416521
401 0.00014801845380589364 1.3264033160619132e-05 0.0014324890162066273
402 0.004205879202084701 -0.00234416248760084 0.0022735835985343298
81 0.0007704059831611458 -3.696915796976859e-05 0.0005506686226533633
257 -0.0008378014402057991 0.0006419638813126131 -0.00050969587167379
450 0.000367070805857401 -0.0002836511146757294 0.001930796086672861
255 0.00022002724815294028 0.000996619387023433 0.0017442060314848157
318 0.0014048086496081086 0.0008069518883528298 -0.000266979330563925
258 0.0014171632637740717 -0.0008119057705708595 -0.0010636261030605705
345 0.00042897287327326865 0.0013116736332100484 -0.0004623512011271604
296 7.063160659404905e-05 0.0002348934166187927 -0.0012411350168460324
459 6.883718055699822e-05 -0.0015264761069006987 -0.001074156328934238
520 -0.0031186121611285747 0.00031803759466854825 0.0014883853488489717
526 -0.001359002684799549 0.0015115569894001593 -0.0007470091832901894
39 0.0016065435609572182 0.00038544730955171176 -0.0016014784789681578
149 -0.0004356007418945886 0.0007841382836482872 -0.00043035016081253047
375 -0.0004786856769096287 -6.293124401949489e-05 -0.0012589683204046074
376 -0.0008299598539889227 0.0013214848675424666 -0.0007905487366492242
217 0.003222148026173687 -0.0006489855088488109 -0.0012242690773663163
374 -0.00033493858097568684 0.0006566546345592422 -7.332528788984779e-05
156 -0.00013987893565465834 -0.004019198386638891 0.0012942966839317393
261 -8.494075055849124e-05 0.002671296068934664 -0.0007538374470758133
252 0.001212358950509268 5.8115969365337154e-05 0.0003155695974023648
251 0.0007520801103913389 -0.0013083121042314547 0.0018303934561603409
379 -1.6841867963134637e-05 8.096484070337884e-05 0.0008091881978734817
378 0.001120655957694217 -0.001815048252926621 0.0006949134394207368
216 -2.3521876178869527e-05 -0.0007538276312033478 -0.0014692945217013467
215 -0.0007992033313050268 -0.0011133317145241458 -0.0018149368507689374
377 0.000506010394278029 0.00017297882002816555 -0.0002081625489663878
99 0.004778326630404137 0.0001295816786785912 -0.0003169262283822538
198 0.0024852511073101147 -0.00021456851474090793 0.00012453020877144358
199 0.0020967136190134434 -0.002349481473611475 0.0003221290352702275
155 -0.00030339234566605143 -0.0010004846233557236 0.000359079601935918
157 0.0012967477628794042 0.000936006205743903 -0.0007548032987553064
512 -0.002426089025435242 2.369151253050231e-05 -0.000605135595041419
514 -0.00018010775962694426 0.0006083661581250694 0.0007011124414374662
197 -0.0002628383017977448 -0.0009901616908630226 -0.0004154392119286115
100 0.006260574901464174 -0.00011709287589897738 0.0009172099210546362
513 0.0036676770370031656 0.0005926733301615388 -0.0015520254338641847
98 -0.00041740920688761434 -0.0013475865376164544 8.395055717266832e-05
23 -0.00010873608929878315 0.0006656825650114623 -8.344160590700425e-05
579 0.000516628413257416 -0.0016294110207090056 -0.0014305823658877688
192 -0.0021656537459196637 0.0019867886733494185 -0.0017765344337370157
444 0.0008705698198793553 -0.00023620392345696814 0.0015701278800919613
445 0.0019234215892969305 0.000777643801050119 -0.0014745783372202656
443 0.001246795269176747 -0.0008908180628752728 -0.00045756987835482617
24 -0.00032802935311784435 0.00012489290472408827 0.00025715929170226393
25 -0.0010013397123180786 -4.523108739347039e-05 -0.0011333902186551204
580 0.00019689145265939308 0.0016411096380204116 -0.0019228665400920116
253 0.0004993741388163214 0.00019801270407299472 0.0035671493014525616
578 -0.00162038666522148 0.00040843782871030393 -0.0011701247101432459
381 -8.36875100897643e-06 -0.00036574172441043354 0.0017048390420563281
193 -4.684067281535496e-05 -0.0009735363734684307 -0.0007050322996172136
262 0.0005021962371059646 0.00015978381648363614 0.0008342346019818551
260 -0.000949344580516826 0.0008037790603067311 0.0008314017032386574
516 0.00021732471350394684 0.0004401113280808949 0.0010164025784537864
399 0.0037400285653949863 0.0034116206036529364 -0.0026003665025452647
398 -0.0017479096664157322 0.00040487411266894687 -0.0006172274836873237
191 -0.0009403160847431985 0.0009389881938053992 -0.000253554440487865
400 7.99778612445446e-05 -0.0026203221097933225 0.005243384115046149
382 -0.0024192241263025303 0.002439936655261059 0.0020529047806806763
4 0.0013813654942447951 -0.0018142195602552467 0.001785447409027792
2 -0.0005629452598669311 0.00024860234442590875 0.0011510686565374723
3 -0.0010403338135776844 0.00044309093780139816 -0.000588686468500903
380 0.00019103961364210187 0.0006035660334714487 -0.00011021356420469408
441 -0.0030688009737667144 -0.0007982433978629548 0.0015674430393885143
484 -7.3839999836304e-05 0.00037239354659542175 -0.0005117841106971459
387 0.00012642295288802744 0.00013967705240736284 -0.0018897206242904992
442 0.0017006434072456048 -0.0030451456814102437 0.001027566268352326
482 -0.00034885662216558645 -0.0007499186169240067 0.00036996961205434
440 -0.0009794853262345784 -0.001930451540781958 -0.0001356603337949408
62 -0.0010281255695119883 -0.0005938734358243441 0.000277911001274972
106 -0.001500187778639317 0.0011507999957014077 -0.0008106003830632531
524 0.0012701768863242582 -0.0009717471841643622 -1.097553570825507e-05
150 -0.0009608648185547889 0.001320077610563336 -0.0001461895960471375
61 6.417239021442105e-05 0.0014994548757666845 0.0013058377024025621
525 -0.0012936397038362834 0.0006623594358876215 -0.0023679843296621227
104 0.00011229831383208765 -0.0002114334905542177 -0.000757727303692399
483 -0.0012837032496522192 -0.0005863822293500781 0.001970142687839824
421 -0.002316943817675838 0.0004748803256200577 0.00013951900790169832
515 -0.0005272678208876261 0.0003259639070058075 -0.0010146087091155124
105 -0.0006222380974192618 -0.0013738818532985865 -0.0008369746522269423
511 -0.001222139767856652 -0.00047960062384784903 0.0022751427303703124
151 0.0002301354517025109 0.0018016539012906403 0.0003711067441660496
137 -0.0008994050957427163 0.0008268332297124983 0.00013650406407830754
388 -0.0016495181632934775 0.0027873756817802025 0.0008689426131890825
386 -0.0003449498593407656 0.0003901536469519842 0.000505229915286607
59 -0.0005964142683963482 0.00025392222153790896 0.000496739393043007
139 -0.0010013668342414566 0.0019014158445109937 -0.001217450838557453
138 0.0034481318547216386 0.00195782711781976 -0.0007496810626599219
383 -0.000456186134296793 0.0003234195275029275 0.0005411302889680496
419 0.0011077390079120804 -0.0009161311929853293 0.0002932356194123733
420 0.004633090813819299 -0.001904082654210085 0.0006601352246487952
385 0.0005008948333752076 5.5581176760828524e-05 -0.0010232562727760983
328 0.0009204496104171043 0.001017023106203924 -0.001707686147705865
326 0.000837940210523809 0.0007663179048798709 -0.0008749443912947403
509 -0.001221845297524302 0.0009966703081754947 -0.000653745332293859
344 1.7737904997143302e-05 0.0012560334888166783 0.00048730314662979746
392 0.00039386538226513255 -0.00041363448879366696 0.00016868002040917009
346 -0.002530154731177488 0.0002758374288381508 0.0010735770639450318
26 -0.00014291064137703078 -0.00098243158018505 -0.0014928116676845029
510 0.00032248799131374094 0.00011611418468911984 0.0019130874686402234
28 -0.002262853974077193 -0.003099462449268135 -0.001064948336219691
27 -0.0017916485006739971 -9.193715169572505e-06 0.0007702255778891758
85 0.002623311884785813 0.00105822425158794 0.00036155300095339
327 0.0013853250847151606 0.00018955907666067025 -0.0013356476587492686
551 0.0005517579696918512 -0.0011055513849632353 0.00032119295722127835
153 -0.0004314572252682589 -0.0010470625321312166 -0.001353181958061581
553 -0.000923883480955008 -0.0014484662496505427 -0.0012433676463918118
195 1.1224328701854262e-05 -0.0035343138758960587 -0.0014057657062662076
47 0.0007571371964447152 -0.0008544366352160796 -0.0002244614034815002
542 0.0008339550843399756 -0.0003554601077440438 0.00019200203177284603
543 -0.0006882980420677767 0.0026234978395644395 3.7543947854137114e-05
48 -0.0003022344965436924 -0.0006720733611349082 0.000813727597863958
194 0.0012937310633072872 -0.001049064512764457 0.0012732725260603838
84 0.003184757064432711 0.001101118274545598 0.0020822435576386463
552 -0.0033012287646564742 0.004983527490215662 -0.002461067054775077
544 0.0008609215988336233 -0.0009269092064845587 0.0002378769888448282
535 0.0012273624555847414 8.110101541125613e-05 -0.0002928991733472233
521 -0.00039812947480410537 0.0003413002509665527 0.000509827428352098
522 0.0002993974745170563 0.00027212470542395205 0.00021720335836814176
533 0.0025930150003578597 -0.0004929411850603105 3.597810683944044e-05
321 -0.001489966511048773 0.0002629962439412082 0.0016592156208158557
523 -0.0006062110746679769 -0.00021124096234849388 0.0010751255454494546
268 0.00011141704076091466 -0.0012934214407129552 0.002504009976564899
43 -0.0010785675402913092 0.0003282193426016605 0.0010992355175378197
266 0.0007612595332639031 -0.0004656666733634584 -0.00011668066806739165
267 -0.002930388962897537 -0.0001840492227350206 -0.0016131891905758523
320 -0.0006441891376597461 0.0004941307459954343 -0.00039041798810334817
83 0.0002477576665005806 -0.0012524486456795836 0.001117232050160197
322 -0.0006351433353908482 0.0008003614533828366 -0.00043171254108594434
500 0.0033803094660517802 0.0015004454736764234 0.00016226105220839732
534 -0.0024285380151884773 0.0006338741333579529 0.000526536034020026
196 0.0005600090215749036 -0.0017799460455058165 0.002146993889987621
49 -0.001996541927637298 0.0015802565418505416 0.002929723458544823
498 -0.0002583235313505743 0.00023427805613170276 -0.00036573260804681924
41 -0.0008192116731335939 0.0003475082931947817 0.0005454068915838415
42 0.0008793908282460022 0.0009368574725198191 0.0004803743379877205
497 -0.0004326213205476867 -0.0018448494825054566 -0.001648443569028499
499 -0.0003132093996709917 -0.0010712173698854816 -0.0006982879817560494
152 -0.0004989304406081946 -0.0015507447520758584 -0.0010473541838880794
502 0.0016614611939409787 0.0020046346308034303 0.0006049147416459986
384 0.001958641013653339 -0.00026211719869485443 -0.001969070180394548
179 -0.0004768890530470375 -0.00018792564498690807 0.0004596614556181222
475 9.060764725887406e-05 -0.001095400384134383 -0.001162333208563336
474 -0.0008622324978738905 0.0029472329392488178 -0.0014590707127014855
473 -0.0014075852962721544 -0.00037702336715656875 -0.0008148958170865033
181 -0.00047877370602661184 0.0019525087877961273 0.0008953523313048152
64 -0.0013443467383301075 -0.0014538588751213271 -0.0008544899871216466
393 -0.0006857968719560315 -0.0012188830387605798 -0.0011165545542039538
180 -0.002646200085448545 -0.00012676832549160988 0.0010463891083554904
501 0.0006720477045463193 0.0023799602405066844 0.0010267280571203798
567 0.002386739125512638 0.00030036889987683973 0.0003015187146564207
566 0.0013129172295769168 -0.00041118091240426144 0.0005334403532161905
89 0.0018064145598520442 -0.0003867132266399709 0.0008760000060412409
306 -0.0003011778778314677 0.0005699773708933137 0.0029986613671872642
90 0.0013734629774656347 -6.759956221031166e-05 -0.0008156652156505195
60 0.002369645974763648 0.00012730977698349294 0.0001327108358529443
91 -8.51148055915057e-05 -0.001793627007959526 0.0030472234472041547
154 -0.0002744209364320968 -0.0016903635911158209 -0.0012760688313762133
394 0.0006575138954112867 0.0016085467001020494 0.0009793857943585572
594 -0.0014338981961196158 0.00022032877024606338 0.0006345032547303713
243 -0.0024249655346578114 -0.0015841289292702048 0.0001121583888296617
390 0.0009449945266967752 0.0012628767220986884 0.001469843792758166
391 0.0005046297726512207 -0.0006817019910544847 0.0016499829087902723
70 -0.0005651608115568427 0.0010978203653832994 -0.0011842775699435974
242 -0.0005074048357405592 0.00013297172897222981 0.0007374983314883245
244 -0.0008638588091292458 0.0009038508038652162 0.0012787219071455178
595 0.0017458399959497163 -0.0007502150508281658 -0.0013614115054307989
389 0.0008122134737655015 0.0004659827073001466 -0.0009308739145483379
295 0.0004197206918910862 0.00014753668918438643 0.0013654474892517009
69 -7.522433537302189e-05 0.0009212398594606429 -0.0009187357166240497
68 0.0016020999900476778 -0.0013567680621930126 0.0005314324099598256
593 0.002037908220665104 -0.00033770350573387965 -0.0015489546741367054
294 -0.0010244470733417998 0.0003663058850486213 0.0015328737231833497
51 -0.0003758470210831348 -0.0015722760826421924 0.0016398081056026794
264 -0.0009722337000381844 0.0007039121556946038 0.0024580595523213456
131 0.0008654786700836385 9.16945857803769e-05 1.0586379944004537e-05
188 -9.456387250294834e-07 0.002033439094334542 -0.0004721362546403618
241 -0.0013852617632315381 0.004041463250543159 0.0007245531158203519
190 -0.0015859689543206619 -0.0002945591330416495 0.0001402378307514391
239 0.000985832070942312 0.0009319588348795241 0.0007070833334713472
189 0.0009279205667415155 0.0022735357235164886 0.0023412518489062655
414 0.0016055090260976832 0.0028500285277591533 -0.001658435891451296
413 0.0007994516876653344 0.001517334946930595 0.00013818790789432229
531 0.0004726686918487367 0.0010572063423157547 -0.00014766736307203008
415 -0.001514539142683465 0.0011601044724060545 -0.00035958714628323197
130 0.00368744812503821 0.0025988518912704573 -0.00020793668247561577
132 0.0009647543283087879 -0.0024508274715443917 0.0009049523152154163
129 -0.00018767418063252823 -0.001195514956026961 -0.001812836751023218
128 0.000591220215516625 0.0013922878489694617 -0.0006366949847062939
133 0.0011850589400682072 0.001250712584838363 0.0013756328519627064
426 -0.0007635021796108938 0.0002570563336429886 -0.0001909444004831641
237 0.0009265884666505333 0.0030575907477537125 0.00243238486452055
427 -0.0013364793781142127 0.0001323973632477317 -0.0005682125092500978
238 0.00045645230942661274 0.0014376020681413058 -0.00029808072595596927
425 -0.0016501015656339147 0.000192978289867842 0.0002519128479566642
236 0.0016699472282119508 0.0015714919647626098 0.00034218102597783923
532 -0.0009612195589219664 -0.003799463084257836 -0.0013224758923620617
530 -0.0011206011077953756 -0.0004785627745930663 -0.0025916141707003084
263 0.0003782433976718907 -0.0004919289685339393 0.00022553890375417144
240 -0.0016108628223507108 -0.0016751068611384336 -0.0010988541146204087
265 0.0016490907685491867 -0.0010370831664429311 0.0007524072640406705
562 -0.0012698503112723912 -0.0008283659678005563 -0.0005216459875034839
21 -0.001649855418923705 -0.0012487543983070843 -0.0008823373048974834
20 -0.0007657917276545951 0.0009209159247871956 0.00010254231296553429
527 0.0004234622823204175 -0.001767369314783692 0.0008408340136382595
561 0.00014015255012112026 0.000506372411083878 -0.0010100748750265325
45 -0.002213671387428257 -0.0008218319705651141 0.0006758031756689906
66 -0.001786057941682897 7.297333696922444e-05 0.00160880873607646
22 -0.0009330852350807362 -0.0005442870683760684 0.0009800054707998912
302 0.0018701126733120337 -0.0003959012645964613 0.0014556419454883553
528 0.0006031117619750485 0.002569260518822761 0.0006776184125588295
303 0.000653640585238644 0.0005061769318126725 7.810964181333413e-06
304 0.0010726145513934087 -0.0004979028928683047 0.0004326902779020302
218 -5.632047397611433e-05 -0.0005373484566872424 0.0008889182576215406
101 0.0007371888605483554 0.0002717655287229149 -0.0005978939992111814
111 -0.0004695628102167422 -0.0008610869597371248 0.00023436974310198726
65 -0.00022790377478249768 0.0017473268304426092 0.0005526250876036791
529 0.0004970756668526363 -0.005157793384010999 -0.001474606591160495
112 -0.0018199082160966992 -0.0013248681383935125 0.000339936134187138
78 0.0009877857736725326 -0.0007784205352309067 0.0015444433304360847
52 -0.001068687653813237 -0.0035015505880255306 -0.0020076539948340904
46 0.0007338384913122772 -0.0010004244990027714 0.00035590258249739457
166 -0.0017148855810464813 0.0008925620085686144 -0.0008356612937365757
582 4.964241688905609e-05 -0.00018013031841570374 -3.59702287997271e-05
79 -5.7139277698204705e-05 0.002791193727070034 -0.0021771672677912434
103 0.0011826628432708916 0.0003729421310292429 -0.0004931155393832372
77 -3.135125519051185e-05 -0.0008782656191183812 -0.0006574341239861671
164 -0.00012522165149218348 -0.0004116508992499213 -0.0005048673241952878
307 -0.0013912430193007207 -0.0011466853879454654 0.0005168796062430017
110 -0.0012121593622844 -0.00041545492052773504 -0.00026358382252663747
102 -0.001159893257550235 -0.0005377567054899245 0.0012815973469165588
560 -0.0007882369573157745 -0.0008540351730750703 -0.0011950103905789492
568 0.0024487078868200437 0.00020522017699387227 0.00014826250571321536
581 7.782706932561461e-05 -0.00019463967122974223 0.00027021226551017085
305 -0.0009416546344641134 0.00026264763955268324 0.0011195069563213755
583 -0.002134058228000971 0.001502962861182007 0.0009585414348619846
165 0.0005294568416268368 0.0002969587667311261 0.000875049843259547
67 -0.002583440900873771 0.0025855256821416613 0.000658530645467502
76 -0.0014749673720544352 0.0007463193304638379 0.000528620068460755
220 0.0022948075650073654 -0.002480436949866939 -0.00130669855331964
44 -0.0010403915487251574 -4.406496741564672e-05 0.0012222543038890939
50 0.00026081638542320597 -0.0010454169591660853 0.000655489743508069
219 0.0018293220769377563 -0.0024879995048762266 -0.0019474623762138438
283 0.00024342176622925494 -0.0005689613423626948 1.0968271501004408e-05
33 0.000600974346749011 -0.001450196233047691 -8.837924844450243e-05
282 -0.00010929272097133985 0.0006912004604241276 0.00015568920795986892
407 0.000656517001048729 -0.00017938320383287617 0.00045291535622925564
517 -0.000898066346423086 0.00040478913570434535 -0.0005376605459655067
125 -0.0017906870451675845 0.00097446443396646 0.00041788417305086307
293 0.0014080163170278343 0.0002697058921756556 0.00043350951220872476
549 0.00015520721043561268 -4.943117473866038e-05 -0.001652480809782506
75 -0.002323252157366655 0.0011783665876163793 0.0009157594553036205
276 0.0014248591052440336 0.0008143433974683953 -6.970253432309954e-05
485 -0.0014439018509837336 -0.0004385068734544137 0.0004660324363370232
487 -0.0033497311513035854 -0.002433809381983278 0.0008152986451627636
486 0.0020606054928061267 0.00012980791464423645 -0.0008711824137146267
275 0.0007201697831241982 -9.797730265943866e-05 -0.0020570659963669927
277 0.0014305199632977102 -0.002877545564832184 0.0005973501429259885
301 -0.002265941381740303 -0.003471613992068734 0.0004352165842702616
406 -0.0012767567677604706 0.002521935317894163 -0.0014770657681627479
299 0.0005580523131009232 0.0008770050513038683 -0.0001373761600791829
300 -0.0002859307960147168 0.002162904907280114 -0.0003345571693343824
92 0.0005878025918131686 0.0007693294597924421 -0.002245857907767147
405 0.00049610170523499 -0.0016042985137774955 -0.0014868729000074455
404 0.0010686188011921533 0.0010063269397749732 -0.0005576105956569482
93 0.0015548767632682335 -0.002154591900947496 0.0014478143440744354
314 -0.0011269822724443834 0.0006023284026477378 0.0006048207092562669
315 -0.0030943536368158433 -0.003358568400764824 -0.0021703609106312177
160 -0.0008914161442675796 0.0007544742086638375 0.0014498106145695417
316 -0.0017768609049259973 0.0013361136232848925 0.003656029651734529
88 0.001203690333938771 -0.00094739138806761 0.0012062949485488264
158 -0.00021846163807212542 0.0002180776167971574 0.0011572575447181392
548 -0.00109348466612756 0.0008196414953649554 5.068557144375394e-05
94 0.0030793035185872164 0.004955467349467984 0.0023522314062221585
87 -0.0023822026998911974 0.0004619122428326078 -0.001865810836572158
232 -0.00016148247992694626 0.0007930983618345621 0.0003693396254414319
86 -0.00017184279602094947 -0.0004920168610493202 -0.0007351448321647935
557 0.0017005550988759507 0.00013284336026047664 -0.0016284512383952566
287 0.00010992305769517622 -0.000286481219999976 0.0005334595180857187
147 -0.003538332594915892 -0.00010514378059207437 0.0001508709179231797
408 -0.00016515732915240916 0.0010610770723188554 0.000695604681092249
550 0.002055057192540274 -0.000256361737927836 -0.0014497646127056628
250 -0.0016317504547788799 -0.0029068784898867096 -0.0006979864574513657
422 -0.002028329275407223 0.0007618551706839308 0.0008886516698802631
559 -6.71783414923906e-05 2.211370595834565e-05 -0.00026264952303545273
448 -0.0003798833008668905 -0.0005487382840431067 -0.001452048946882434
9 -0.0009366812887341805 0.0011076011804318992 0.00034693774305633057
159 0.002235988078161115 -0.0014328178739037149 0.002700926590555834
446 -0.0018313454588986062 -0.00037511105316498486 0.0005954796045681968
464 0.0006366345535860246 0.001626379527280575 -0.0004038230746894425
465 0.0006896969254339665 0.0016084929202089865 -0.0005758145932462944
10 -0.003217966846092123 0.002352873576990414 -0.0026705568810734097
8 -0.0011791609147304041 2.6273027087104966e-05 -0.0009413858643180601
466 -0.002461844753882097 5.244068142790684e-05 -0.002287737871007859
308 -0.001555517745668873 -0.000389950575737279 -0.0008976780083735929
309 -0.0001990526618721235 0.00022789580164531357 -0.0003472539958602869
143 0.000922630990222953 0.001924309682437641 -0.0002717650876029782
145 0.001350295481926572 0.0007147162767351466 -0.0005348798458711058
144 0.0018647832233592173 -0.0011906977998064287 -0.0013652539163230375
357 0.0017736201469801586 -0.001052101057048625 0.00048354217835235464
310 -0.0008508640768340546 -4.180860627069426e-05 -0.0011767260483248312
541 0.0008713250169673351 -8.625339329303383e-06 -0.0009894136843924602
539 -5.528200071171715e-05 0.0005974636304732105 -0.0009868581525803056
447 -0.0013206591049334322 0.0016329651150599233 0.0024863035516853494
577 -0.0019232782321115848 -0.0001499465096876688 -0.00022011075700898626
358 0.000262948329056363 0.0006215708535712077 -0.0003641854571889658
540 -0.0013683886100538643 0.001449209204627262 -0.000990457652257088
575 -0.0019385188888807697 0.00010941064598353184 -0.001592296015730209
109 0.0015547173009236384 -0.0017432349853447983 0.000989841424976092
576 -0.000718421272060159 -0.001698082801657022 -8.013447249842385e-06
107 0.0003607042287340653 -0.0007984162869784934 0.0013466332510878008
361 0.0011610336353518988 0.0006276397320539714 -0.0029273244804894696
356 4.8773470515563816e-05 -0.001141181106191865 -0.0010752296465980575
508 -0.0012514046749863021 -0.0005914545172356692 -0.0005164168042544715
507 0.000860297737124045 0.0015888753811707892 -0.005300675627610161
108 -0.0005565325576874301 -0.0022622758974041946 0.0019366764185526648
438 0.0008999888778596496 0.0003109221822066621 -0.0018862392460943392
437 0.0007100328318548814 8.918925948298679e-05 -0.0011645588889049269
372 -0.0005804409736722193 -0.001879285867828957 -0.0017280649070373743
468 0.0019697525156706706 -0.0024830354414851433 0.000521166158346508
256 0.0006020110629306135 -0.0011745980021121744 -0.0002456694896759999
371 -0.0007558790071690424 -0.0008531944444360207 0.0017555973492200492
506 -0.000259899748369437 0.0004567906522789568 0.00013553102720028235
503 -0.0002492446852750723 0.000367669106808832 0.00013751648687275106
359 -0.0007549141222497604 0.0011297669502568126 0.0016081376436809915
297 -0.0003321816812670593 -0.0007151396457123503 0.0005097020237590891
373 -0.0011792416630488438 -0.0008052024049557068 0.0029908320286148988
254 0.0007093625965323812 -0.0007412639522267548 0.0010997154589320866
504 0.0018170722629038342 0.0008955773838748499 -0.00016767140652325876
360 0.0006109681114097979 -0.0008366950963769344 2.2275922656017847e-05
467 0.0008407783744183206 0.0015794956681040365 0.0006066518264539469
424 -0.0004411389250623792 0.00015076317194953804 0.0007875103166162813
230 -0.0009716224646655352 0.0006529082143281991 0.0001540635420392731
222 0.0018052641903502206 0.000739876166898675 -0.00031549597521102825
423 -0.0013327203090724472 0.001238247301676396 0.000334851715586509
231 -0.0009059268605543535 0.0014329288266202262 -0.0009926013697862635
142 0.001156451761273281 -0.00037343939296040037 0.0004456172178260267
221 0.0009396617306957889 -0.00034393200623571016 0.0004072180305489836
558 -5.234577724651347e-05 -0.0003188305618843635 -0.0005033933124548464
429 -0.0009727760307654983 5.58588110252578e-05 0.00036353973950118535
223 0.00016012953959337802 0.0008496456250424787 0.0014853741833163385
433 -0.00010038473462120265 -0.000271436918366416 -0.0024959317540065914
17 0.001181408964566292 0.001041520746457204 -0.0016774863205570565
15 0.0011962193258098612 0.0005586327193406187 0.0019032322282208991
140 0.0005560773362006338 -0.00010886411173163114 0.0006004487050920541
18 -0.00347301767078864 -0.0008728927805056727 -0.001033304142393788
428 0.0005086590436187595 9.937567359568118e-05 7.630645395092485e-05
430 -0.0028180447730227695 -0.0002355608046403961 -0.0009838056482096768
311 0.00021796374722176396 -0.0006440719231556841 0.0005477885994858133
313 -0.0009234122596406097 -8.079041393634164e-05 0.0016402106794444662
225 -0.0004922362159007015 -0.0005374246281779036 0.00034216186618653613
479 -0.0001814622621994247 -0.0002094382459132189 -0.00047873533340023894
480 0.002057444814806729 0.002001094173290438 -0.0008365227342981849
312 -0.002224644011178029 -0.0015533075617525762 0.0005241405898207316
481 0.0018590229974755062 0.0034124096665527756 -0.0004891990318915932
14 0.0012737089685001136 4.7568486265653275e-05 -1.3460843341941449e-06
16 0.0023787872901305626 0.0027809212336097158 -0.0015570729185692045
272 0.0005942432778941036 0.0005163940234907084 -0.0011137556560276481
224 -0.00024742081456200735 -0.0011089885559915865 0.0008870222384768533
226 0.0012005397438231374 0.001081125655224263 -0.0016834226055845165
417 -0.0017407670327262304 -0.0005057328617137967 -0.0014249607008268686
19 -0.0010439407944553098 -0.0013164538710371614 -0.0010118436834672838
274 -0.0017616421173395518 -0.0013004047813726563 0.00021299301267893158
416 -0.00044411856148828004 0.00011207893410205088 -0.0007077977101741265
490 -0.0006754624068324767 6.483374960511764e-05 -0.0008038993104928043
412 -0.0006820967538746719 0.0015264440241832026 -0.0010203847573996222
410 -0.0012265113197234394 -0.0018254693118753028 0.0011512395622508367
183 0.0018807465913305197 0.0005281388691569176 0.0013083628147815252
418 -0.001033194425415581 0.000672226048810446 -0.002432707194517512
340 0.001557470253476987 0.0005141100246880484 0.000986439756059614
411 -0.00100349595188581 -0.0007409186237522768 0.0004783855796995626
569 -0.0003122827637463686 -0.000494241956333959 0.0014894274540655172
570 0.0003346390992207671 0.00015769197129006208 0.0013296599378544301
488 -0.001639762935970545 -0.00041358368088912793 -0.0006232236357790621
338 0.00046528274286077113 -0.001030459410903928 -0.00026886000612302515
489 -0.0014972107044291803 -0.0018159607318851958 -0.0008718548386901683
336 -3.905501360561433e-06 -0.0004967575278260664 -0.0003214181649939257
339 0.0014076967058678069 0.0030453989304890434 0.002754628346013244
571 -0.0014237582799881217 0.0017923327042724591 0.00035814942648780524
355 -0.0007558650533807487 0.0004624883737876123 -0.00015180878437376559
572 0.0016338688494152553 0.0007448484428747057 -0.0008477960010831714
574 -0.0003996252514647054 0.0015329226918657957 -0.00032240148451430204
353 -0.0008673247289046204 6.725451759950559e-05 -0.0003801447151354479
182 0.001117596744585894 0.0005096557759080926 0.0006414104172564296
354 -0.0008963991731575572 -0.00023318967508765496 -0.0009244489518752364
335 -0.00027104450421920373 0.0021925443461866174 0.0003558261116925024
29 5.240051408831961e-06 6.49683999876681e-05 0.0011962589888158328
596 0.00024961214330532087 0.00023120750856126717 -0.001568713019216765
30 0.0006725130928944536 -0.0016113053739979161 0.00039816873928202466
31 0.000271196976692084 0.0007712882449214854 0.0016722245207957467
324 0.0017389773553778565 -0.00340885885745644 0.0019161717129114653
547 0.0027166649089736526 2.3740814476115249e-07 -0.0001450423165022561
598 0.00028494484099157903 0.0008770863654194386 -0.0032805564114364227
597 0.001721822408651454 -0.0002724895744223049 0.002938022646093033
273 0.002110082891802849 0.002999057001112139 -4.964665074395246e-05
63 0.0005119573335445435 0.003654914283903227 -6.99648905881408e-05
325 0.0011752190411000543 -0.00033271092311239724 -0.00017683553976819707
337 -0.0022255016289427277 0.0032365583551119213 -0.0016698461843440556
127 -0.0023511704626693855 -0.0004974572118949713 -0.0011710901471788401
323 0.0009857746232446235 -9.048590764671025e-06 8.94518287201318e-05
32 0.00032914684543151483 -0.0005660712364814024 8.523049514302174e-05
175 -0.00013369416544901732 0.0013809424539889378 -0.0007396591655411932
573 0.002189081515781279 0.002265245398040094 -0.002606780307648456
469 0.0018949372813539102 -0.004108061697165884 0.0008203960582301765
141 0.00032641860298018383 0.0015957850740665191 -0.0013692905543635787
431 0.00028294512320075715 -0.00020709222980785344 -0.0012929674457126507
184 0.0008273911394046767 0.0006304472549102021 8.068097098074865e-05
554 0.0012174128470612412 -0.0005526393530256692 0.000572415763053307
432 0.00033541603513249354 0.0007301571262460708 0.0005542999900777657
455 -0.0005689919200323576 -0.0006451817923935616 -0.0016970076810722406
439 0.0017578254156429074 0.0014281650553763653 -0.0026072158945488737
478 0.0008103040833278173 -0.001367724594914019 0.002755515747983614
505 -0.0008775786532511945 -0.0002920611008228626 -0.0016511422434305387
247 -0.000385230569941197 -0.0018192672954984736 -0.003534854570695791
73 0.002880369720304935 0.0016004891471159983 -0.0025031794423899167
476 -0.0009397377311733067 -0.0003521018318560733 -0.00014930117850375362
463 -0.0015600372192317627 0.0016226000053366268 -0.0007355170377599579
477 -0.0019020939609250352 -0.0015976952053121563 -0.0035042890854803488
71 -0.0015370599392692233 4.658873014053838e-05 -0.0009627654317587857
169 0.0008797440979815875 0.0006931169721144042 0.002400943120710821
167 0.000725071968176263 0.0013495396027909522 0.0023931312968764992
462 0.0002334663506403674 -0.0013389914487848043 0.0015413759039122944
461 0.0007615872009187745 0.0008556232793679843 0.00020949382286922813
246 9.715013348489256e-05 -0.002974719556621962 0.00041042695754163304
204 -0.0009868869733463898 0.002787147045366925 0.0006559388030612606
72 -0.0005666266576114337 0.0007930171785225772 -0.0019125317532165294
585 0.0011769389152264044 -0.0020110217636147344 0.0011721578889261088
493 0.001620483655792168 0.002373502072130345 0.0021174759496770026
233 -0.0009130237702804019 -0.00024737050940915154 -0.00022530180763301737
584 -0.00048654251069012974 8.631913543064737e-05 -0.0008039582450286432
586 -0.0010084921717351896 -8.341765059329634e-05 -0.0013992795192213111
234 -0.001496358532238766 -0.0022377272548137757 -0.0009016115112747441
235 -0.0035277017617842367 0.001444400677356948 0.0028089319455179562
205 -0.002547404930486337 -0.0026823185099380817 -0.001206350666647662
201 0.00037391150950416276 0.0009094963832786682 -0.0012377070138774003
202 0.0001116427524489796 0.0011083831125437281 -0.00097837639074552
491 -0.0002464463043840202 -0.0016249366708481845 0.0003360837066704657
170 -0.001084069902762485 -0.0009255808850517779 -0.00020327734687319344
168 0.0025029943473569094 0.0010997455856225813 0.001754595526333212
172 0.0002142773092990573 -0.00012834838182233465 -0.00023436001131022007
492 -0.0012506431715932338 -0.0013425599614586103 -0.001976620185485393
200 5.371324763709645e-05 0.0011718613681819686 -0.0011138014438475782
171 -0.0007426954445495621 -0.0022910180361004184 -0.0007950294547838505
434 0.0006333535114450461 0.0005753559171639205 0.0009813580947635027
589 0.002404140695915884 -0.001520948724385767 0.00038698639284847193
203 3.449730662870993e-05 0.000919401204754594 -0.0004460668171786967
587 -0.0006383407387778378 -0.00031771144765038365 0.0004223789201903647
435 0.0006690240164443355 0.0005261505035413515 0.0009174243490203026
436 0.0014052844346444996 5.2560921395296254e-05 -0.0016710303075127529
472 -0.001333620110259963 -0.0014339853377618589 -0.0016771825560787503
588 -0.0027808413979063455 8.698796198122616e-05 -0.0003817157823095357
95 -0.0010626235425176967 -0.0021503396017215847 0.0008602800688785239
13 -0.0009601687249838062 -0.0007807547613694125 -0.0003041248108976192
97 -0.0030225914588859564 -0.0006514650624673858 0.0015701892141237375
278 0.0006213770492605122 -0.0007176271505229242 7.573585894562728e-05
470 0.0004495307181011534 -0.0013492112595529353 -0.00250742647455697
280 0.0007878523393415091 -0.0031926997824917275 -0.0004718681421494253
471 0.000956174938061578 -0.00017194217523507375 -0.002626216293769247
362 0.001204590412589963 -0.000846725289105851 0.000976049923410165
11 0.0001528368850664564 -0.000872746664289021 -0.0004509846630679377
12 -0.0014335150690603375 0.0006784986900536644 -0.0007301112975577873
538 -0.0030291547923871854 -0.0022320135542380306 0.003983468785029093
537 0.0004570101785873998 0.000754393869720029 0.0001190676507604981
536 0.0003113563656776825 0.00037630404133893834 -0.001155799510627668
363 0.001634104466173264 0.00017062189244467334 -0.000764308004928107
364 0.0025651351623053715 0.004344398891118431 -0.0014780927783221585
96 0.000404904888721999 0.002046104166947072 -0.002023393954070607
116 -0.00014619664057558592 -0.0017118893573734853 0.0004054359994597872
214 -0.0018785801651235033 -0.0006167968543755681 -0.0004142554516394104
57 0.0023134962408127473 0.0029651415025738264 0.0016927609085250488
555 0.0006193252816368094 -0.0005916867874989007 0.0015365667779270397
117 0.0006061683448886554 -0.0004915659361561802 0.0006489224765011547
279 0.0010133000043464349 -0.0006116185357033693 0.002588350455523227
56 0.0017971463879681618 0.00030037207808921183 -0.0007432318086427827
245 -3.660001028041266e-05 -0.0008620455571776015 -0.0012539351896420916
126 -0.003978676123475087 0.0018811701642874848 0.0015105482542594184
457 0.0012929270700767048 0.0005365209362363731 -0.0006749080740778457
118 0.0018911338040980396 -0.00042069676535982253 0.0009503326102739815
556 0.002251540313903895 -0.0006951716792521092 -0.0003954558873388306
212 -0.00012617358395465266 -0.0003549046936378313 0.00014272997025985358
600 0.00022188494542357303 -0.001848490603470462 0.003470107406643084
545 0.00038087063506215976 -0.00036492248904786595 7.472981922182371e-05
178 -0.0014848212318809412 0.0011350376664745257 0.001953464976508173
599 -0.0006093517040856588 -0.0002141594449283821 -0.0005909950980297941
546 0.0028442248157398353 -3.294476379911085e-05 0.0005586708747207302
350 0.0010670194417900963 0.0007582106276838877 -1.2832832408666922e-05
352 -0.0015007167401844927 0.0024109001213470176 -0.0019463069488102314
351 -0.002739675698073424 -0.0025687419707225907 0.001358038448212014
6 -0.000846317970372749 -0.0011108754699765085 0.0006147145182901958
601 0.0017726871958291203 -0.0011096371603219963 -0.00028075962779739155
591 0.0006586801066378042 -0.0014803273691264584 0.0022836175242597814
176 0.00038994996898474363 0.00030139517158706756 0.0006024471806918355
590 -0.00015757427699168356 -0.0011789343439020355 -0.0006464459190564585
452 -0.0009459246893541434 0.0027173055729860685 0.00020134887887889805
453 -0.0010442183235030546 0.002813134485069474 -0.0023812587404918057
211 0.0010378495326862532 -0.0015083840919244383 -0.0004741912269063743
592 -0.0013467647411596535 0.0010468245778329488 -0.0008848107966104053
209 0.0012910832547831962 0.0005044020703125569 -0.00011088907073764467
454 0.0029268388240054604 -0.00046808910812847534 -0.0007773668741067136
210 0.0018958016619699284 -0.00104358482024492 -0.0009193485712571253
289 -0.0015969386756683362 -0.0010180915768383365 -0.0009732828347639884
213 0.0007290514946129268 -0.0009830423358912913 0.0006465342846026586
281 0.00022993656039333317 0.0006331654037231672 0.0005571877742035026
74 -0.0008358707213692185 0.0009279449897453883 -0.00019961116557595798
34 -0.0019977953504464385 0.001078024038569647 0.0002554244109851476
7 -0.0010754329334118527 -0.0007156703442321373 0.0004443307831639305
58 0.0011841064936787707 -0.0007228974435379127 -0.000537827591238279
5 0.00022453313035209925 3.507018004591243e-05 0.00039735230235806807
366 -0.0004201585048830377 0.0002791635059645314 -0.002807485007347412
173 0.0002493670948274481 7.051701419902554e-05 -0.0007938021169198075
123 0.0002752000046507847 0.0003699638208166057 -0.0013688124007218757
115 -0.001432683809355774 0.0006604563899828441 0.00034765359969487515
122 -0.0012487136663686994 0.0010558318067676166 -0.0011202998415405711
288 0.0008015056779242227 0.00078408236883333 0.002351584104362828
174 -0.0001758798559966767 0.0035697704643551926 -0.0011250647741298566
365 8.1634998565393e-05 -0.0003074203613562443 0.000299298136924277
113 -0.001654197676835773 -0.0008102376475322047 0.00013166336218155394
249 -0.0012949097365115452 -0.0023204769244287377 0.0005099400633954892
124 0.0013810461430395476 -0.0006788846721176306 -0.0010397619730759173
456 0.0005109665834847212 -0.0006142672441549244 -0.0013779185977304952
114 -0.00035826415553337 -0.00017333563042308339 0.0005827749073215596
177 0.0016056347396758372 -0.0017890656307252247 -0.0011972664758109319
248 -0.0014050002221140364 -0.0022672899228473337 -0.00011934075723289112
367 0.0038583339066339574 0.00035121688689103404 -0.0018778892408873077

Bonds

1 1 329 331
2 1 329 330
3 1 185 187
4 1 185 186
5 1 53 55
6 1 53 54
7 1 332 334
8 1 332 333
9 1 284 286
10 1 284 285
11 1 563 565
12 1 563 564
13 1 146 148
14 1 146 147
15 1 518 520
16 1 518 519
17 1 458 460
18 1 458 459
19 1 269 271
20 1 269 270
21 1 38 40
22 1 38 39
23 1 395 397
24 1 395 396
25 1 290 292
26 1 290 291
27 1 134 136
28 1 134 135
29 1 341 343
30 1 341 342
31 1 449 451
32 1 449 450
33 1 119 121
34 1 119 120
35 1 161 163
36 1 161 162
37 1 347 349
38 1 347 348
39 1 494 496
40 1 494 495
41 1 206 208
42 1 206 207
43 1 317 319
44 1 317 318
45 1 227 229
46 1 227 228
47 1 35 37
48 1 35 36
49 1 368 370
50 1 368 369
51 1 80 82
52 1 80 81
53 1 401 403
54 1 401 402
55 1 257 259
56 1 257 258
57 1 296 298
58 1 296 297
59 1 149 151
60 1 149 150
61 1 374 376
62 1 374 375
63 1 251 253
64 1 251 252
65 1 215 217
66 1 215 216
67 1 377 379
68 1 377 378
69 1 155 157
70 1 155 156
71 1 512 514
72 1 512 513
73 1 197 199
74 1 197 198
75 1 98 100
76 1 98 99
77 1 23 25
78 1 23 24
79 1 443 445
80 1 443 444
81 1 578 580
82 1 578 579
83 1 260 262
84 1 260 261
85 1 398 400
86 1 398 399
87 1 191 193
88 1 191 192
89 1 2 4
90 1 2 3
91 1 380 382
92 1 380 381
93 1 482 484
94 1 482 483
95 1 440 442
96 1 440 441
97 1 62 64
98 1 62 63
99 1 524 526
100 1 524 525
101 1 104 106
102 1 104 105
103 1 515 517
104 1 515 516
105 1 137 139
106 1 137 138
107 1 386 388
108 1 386 387
109 1 59 61
110 1 59 60
111 1 383 385
112 1 383 384
113 1 419 421
114 1 419 420
115 1 326 328
116 1 326 327
117 1 509 511
118 1 509 510
119 1 344 346
120 1 344 345
121 1 392 394
122 1 392 393
123 1 26 28
124 1 26 27
125 1 551 553
126 1 551 552
127 1 47 49
128 1 47 48
129 1 542 544
130 1 542 543
131 1 194 196
132 1 194 195
133 1 521 523
134 1 521 522
135 1 533 535
136 1 533 534
137 1 266 268
138 1 266 267
139 1 320 322
140 1 320 321
141 1 83 85
142 1 83 84
143 1 500 502
144 1 500 501
145 1 41 43
146 1 41 42
147 1 497 499
148 1 497 498
149 1 152 154
150 1 152 153
151 1 179 181
152 1 179 180
153 1 473 475
154 1 473 474
155 1 566 568
156 1 566 567
157 1 89 91
158 1 89 90
159 1 242 244
160 1 242 243
161 1 389 391
162 1 389 390
163 1 68 70
164 1 68 69
165 1 593 595
166 1 593 594
167 1 131 133
168 1 131 132
169 1 188 190
170 1 188 189
171 1 239 241
172 1 239 240
173 1 413 415
174 1 413 414
175 1 128 130
176 1 128 129
177 1 425 427
178 1 425 426
179 1 236 238
180 1 236 237
181 1 530 532
182 1 530 531
183 1 263 265
184 1 263 264
185 1 20 22
186 1 20 21
187 1 527 529
188 1 527 528
189 1 302 304
190 1 302 303
191 1 218 220
192 1 218 219
193 1 101 103
194 1 101 102
195 1 65 67
196 1 65 66
197 1 77 79
198 1 77 78
199 1 164 166
200 1 164 165
201 1 110 112
202 1 110 111
203 1 560 562
204 1 560 561
205 1 581 583
206 1 581 582
207 1 305 307
208 1 305 306
209 1 44 46
210 1 44 45
211 1 50 52
212 1 50 51
213 1 407 409
214 1 407 408
215 1 125 127
216 1 125 126
217 1 293 295
218 1 293 294
219 1 485 487
220 1 485 486
221 1 275 277
222 1 275 276
223 1 299 301
224 1 299 300
225 1 92 94
226 1 92 93
227 1 404 406
228 1 404 405
229 1 314 316
230 1 314 315
231 1 158 160
232 1 158 159
233 1 548 550
234 1 548 549
235 1 86 88
236 1 86 87
237 1 557 559
238 1 557 558
239 1 287 289
240 1 287 288
241 1 422 424
242 1 422 423
243 1 446 448
244 1 446 447
245 1 464 466
246 1 464 465
247 1 8 10
248 1 8 9
249 1 308 310
250 1 308 309
251 1 143 145
252 1 143 144
253 1 539 541
254 1 539 540
255 1 575 577
256 1 575 576
257 1 107 109
258 1 107 108
259 1 356 358
260 1 356 357
261 1 437 439
262 1 437 438
263 1 371 373
264 1 371 372
265 1 506 508
266 1 506 507
267 1 503 505
268 1 503 504
269 1 359 361
270 1 359 360
271 1 254 256
272 1 254 255
273 1 467 469
274 1 467 468
275 1 230 232
276 1 230 231
277 1 221 223
278 1 221 222
279 1 17 19
280 1 17 18
281 1 140 142
282 1 140 141
283 1 428 430
284 1 428 429
285 1 311 313
286 1 311 312
287 1 479 481
288 1 479 480
289 1 14 16
290 1 14 15
291 1 272 274
292 1 272 273
293 1 224 226
294 1 224 225
295 1 416 418
296 1 416 417
297 1 410 412
298 1 410 411
299 1 569 571
300 1 569 570
301 1 488 490
302 1 488 489
303 1 338 340
304 1 338 339
305 1 572 574
306 1 572 573
307 1 353 355
308 1 353 354
309 1 182 184
310 1 182 183
311 1 335 337
312 1 335 336
313 1 29 31
314 1 29 30
315 1 596 598
316 1 596 597
317 1 323 325
318 1 323 324
319 1 32 34
320 1 32 33
321 1 431 433
322 1 431 432
323 1 554 556
324 1 554 555
325 1 455 457
326 1 455 456
327 1 476 478
328 1 476 477
329 1 71 73
330 1 71 72
331 1 167 169
332 1 167 168
333 1 461 463
334 1 461 462
335 1 233 235
336 1 233 234
337 1 584 586
338 1 584 585
339 1 491 493
340 1 491 492
341 1 170 172
342 1 170 171
343 1 200 202
344 1 200 201
345 1 434 436
346 1 434 435
347 1 203 205
348 1 203 204
349 1 587 589
350 1 587 588
351 1 95 97
352 1 95 96
353 1 278 280
354 1 278 279
355 1 470 472
356 1 470 471
357 1 362 364
358 1 362 363
359 1 11 13
360 1 11 12
361 1 536 538
362 1 536 537
363 1 116 118
364 1 116 117
365 1 56 58
366 1 56 57
367 1 245 247
368 1 245 246
369 1 212 214
370 1 212 213
371 1 545 547
372 1 545 546
373 1 599 601
374 1 599 600
375 1 350 352
376 1 350 351
377 1 176 178
378 1 176 177
379 1 590 592
380 1 590 591
381 1 452 454
382 1 452 453
383 1 209 211
384 1 209 210
385 1 281 283
386 1 281 282
387 1 74 76
388 1 74 75
389 1 5 7
390 1 5 6
391 1 173 175
392 1 173 174
393 1 122 124
394 1 122 123
395 1 365 367
396 1 365 366
397 1 113 115
398 1 113 114
399 1 248 250
400 1 248 249

Angles

1 1 330 329 331
2 1 186 185 187
3 1 54 53 55
4 1 333 332 334
5 1 285 284 286
6 1 564 563 565
7 1 147 146 148
8 1 519 518 520
9 1 459 458 460
10 1 270 269 271
11 1 39 38 40
12 1 396 395 397
13 1 291 290 292
14 1 135 134 136
15 1 342 341 343
16 1 450 449 451
17 1 120 119 121
18 1 162 161 163
19 1 348 347 349
20 1 495 494 496
21 1 207 206 208
22 1 318 317 319
23 1 228 227 229
24 1 36 35 37
25 1 369 368 370
26 1 81 80 82
27 1 402 401 403
28 1 258 257 259
29 1 297 296 298
30 1 150 149 151
31 1 375 374 376
32 1 252 251 253
33 1 216 215 217
34 1 378 377 379
35 1 156 155 157
36 1 513 512 514
37 1 198 197 199
38 1 99 98 100
39 1 24 23 25
40 1 444 443 445
41 1 579 578 580
42 1 261 260 262
43 1 399 398 400
44 1 192 191 193
45 1 3 2 4
46 1 381 380 382
47 1 483 482 484
48 1 441 440 442
49 1 63 62 64
50 1 525 524 526
51 1 105 104 106
52 1 516 515 517
53 1 138 137 139
54 1 387 386 388
55 1 60 59 61
56 1 384 383 385
57 1 420 419 421
58 1 327 326 328
59 1 510 509 511
60 1 345 344 346
61 1 393 392 394
62 1 27 26 28
63 1 552 551 553
64 1 48 47 49
65 1 543 542 544
66 1 195 194 196
67 1 522 521 523
68 1 534 533 535
69 1 267 266 268
70 1 321 320 322
71 1 84 83 85
72 1 501 500 502
73 1 42 41 43
74 1 498 497 499
75 1 153 152 154
76 1 180 179 181
77 1 474 473 475
78 1 567 566 568
79 1 90 89 91
80 1 243 242 244
81 1 390 389 391
82 1 69 68 70
83 1 594 593 595
84 1 132 131 133
85 1 189 188 190
86 1 240 239 241
87 1 414 413 415
88 1 129 128 130
89 1 426 425 427
90 1 237 236 238
91 1 531 530 532
92 1 264 263 265
93 1 21 20 22
94 1 528 527 529
95 1 303 302 304
96 1 219 218 220
97 1 102 101 103
98 1 66 65 67
99 1 78 77 79
100 1 165 164 166
101 1 111 110 112
102 1 561 560 562
103 1 582 581 583
104 1 306 305 307
105 1 45 44 46
106 1 51 50 52
107 1 408 407 409
108 1 126 125 127
109 1 294 293 295
110 1 486 485 487
111 1 276 275 277
112 1 300 299 301
113 1 93 92 94
114 1 405 404 406
115 1 315 314 316
116 1 159 158 160
117 1 549 548 550
118 1 87 86 88
119 1 558 557 559
120 1 288 287 289
121 1 423 422 424
122 1 447 446 448
123 1 465 464 466
124 1 9 8 10
125 1 309 308 310
126 1 144 143 145
127 1 540 539 541
128 1 576 575 577
129 1 108 107 109
130 1 357 356 358
131 1 438 437 439
132 1 372 371 373
133 1 507 506 508
134 1 504 503 505
135 1 360 359 361
136 1 255 254 256
137 1 468 467 469
138 1 231 230 232
139 1 222 221 223
140 1 18 17 19
141 1 141 140 142
142 1 429 428 430
143 1 312 311 313
144 1 480 479 481
145 1 15 14 16
146 1 273 272 274
147 1 225 224 226
148 1 417 416 418
149 1 411 410 412
150 1 570 569 571
151 1 489 488 490
152 1 339 338 340
153 1 573 572 574
154 1 354 353 355
155 1 183 182 184
156 1 336 335 337
157 1 30 29 31
158 1 597 596 598
159 1 324 323 325
160 1 33 32 34
161 1 432 431 433
162 1 555 554 556
163 1 456 455 457
164 1 477 476 478
165 1 72 71 73
166 1 168 167 169
167 1 462 461 463
168 1 234 233 235
169 1 585 584 586
170 1 492 491 493
171 1 171 170 172
172 1 201 200 202
173 1 435 434 436
174 1 204 203 205
175 1 588 587 589
176 1 96 95 97
177 1 279 278 280
178 1 471 470 472
179 1 363 362 364
180 1 12 11 13
181 1 537 536 538
182 1 117 116 118
183 1 57 56 58
184 1 246 245 247
185 1 213 212 214
186 1 546 545 547
187 1 600 599 601
188 1 351 350 352
189 1 177 176 178
190 1 591 590 592
191 1 453 452 454
192 1 210 209 211
193 1 282 281 283
194 1 75 74 76
195 1 6 5 7
196 1 174 173 175
197 1 123 122 124
198 1 366 365 367
199 1 114 113 115
200 1 249 248 250
